%nprocshared=1
%mem=1GB
#p opt=(calcfc,cartesian,maxcycles=5000) iop(1/152=5000) pm6

Title

0 1
C -5.0710522388059704 1.0783507462686561 0.47044029850746183
C -3.8153522388059704 0.1782507462686569 0.19534029850746193
C -4.11845223880597 -1.3219492537313435 0.5608402985074619
C -2.96945223880597 -2.3874492537313436 0.7034402985074619
C -2.52015223880597 0.7359507462686565 0.7384402985074618
C -2.20305223880597 0.7852507462686571 2.097440298507462
C -1.5755522388059702 1.205650746268656 -0.18965970149253808
C -0.9533522388059701 1.2695507462686564 2.508640298507462
H -2.91125223880597 0.4298507462686567 2.840840298507462
C -0.32655223880597006 1.6562507462686575 0.21554029850746192
H -1.7850522388059702 1.178550746268657 -1.2573597014925382
C 0.004447761194029898 1.6956507462686563 1.569740298507462
H -0.7158522388059702 1.2676507462686573 3.5705402985074617
H 0.3943477611940298 1.9193507462686572 -0.5551597014925382
C -1.76045223880597 -2.1592492537313435 -0.1734597014925381
C -0.5287522388059701 -1.936549253731343 0.464840298507462
C -1.8068522388059702 -2.121249253731343 -1.5681597014925381
C 0.6114477611940299 -1.614449253731343 -0.2582597014925381
H -0.4544522388059702 -1.954049253731343 1.5506402985074619
C -0.6479522388059701 -1.8270492537313432 -2.2998597014925384
H -2.74345223880597 -2.290549253731343 -2.092259701492538
C 0.5698477611940298 -1.5506492537313434 -1.6506597014925382
H 1.5072477611940298 -1.351949253731343 0.2991402985074618
H -0.7173522388059701 -1.7640492537313435 -3.3840597014925375
C 1.7791477611940298 -1.082849253731343 -2.4255597014925376
H 1.4739477611940297 -0.9102492537313429 -3.464259701492538
H 2.1252477611940295 -0.1337492537313434 -2.0010597014925384
C 1.3965477611940298 2.0964507462686566 1.997440298507462
H 1.51704776119403 1.8448507462686567 3.057640298507462
H 2.1256477611940294 1.5207507462686571 1.4165402985074618
C 3.94864776119403 -1.4275492537313434 -3.522959701492538
H 4.81734776119403 -2.087049253731343 -3.615159701492538
H 3.4305477611940303 -1.3641492537313429 -4.484459701492538
H 4.26984776119403 -0.441449253731343 -3.176459701492538
C 2.60904776119403 -3.4296492537313434 -2.8992597014925376
H 1.9825477611940296 -3.869549253731343 -2.119359701492538
H 2.06294776119403 -3.373349253731343 -3.845759701492538
H 3.5215477611940305 -4.019849253731343 -3.0234597014925377
C 3.7281477611940304 -2.060049253731343 -1.156659701492538
H 3.9048477611940298 -1.032549253731343 -0.8295597014925382
H 3.12924776119403 -2.623249253731343 -0.4404597014925382
H 4.68244776119403 -2.5769492537313434 -1.3005597014925383
C 3.1110477611940297 3.755250746268656 2.588740298507462
H 3.40124776119403 4.809350746268656 2.534540298507462
H 2.9823477611940303 3.461750746268656 3.634840298507462
H 3.86514776119403 3.1392507462686563 2.091540298507462
C 1.99744776119403 3.9574507462686572 0.40494029850746194
H 2.67914776119403 3.230350746268657 -0.04295970149253803
H 1.03214776119403 3.981150746268657 -0.10175970149253821
H 2.4399477611940297 4.958250746268657 0.368240298507462
C 0.7418477611940297 4.4992507462686575 2.475440298507462
H -0.18475223880597014 4.424250746268656 1.901240298507462
H 0.57844776119403 4.189650746268656 3.511940298507462
H 1.1210477611940297 5.524350746268658 2.4432402985074617
N 3.00114776119403 -2.025349253731343 -2.490159701492538
N 1.7831477611940298 3.586450746268657 1.862540298507462
C -3.55075223880597 -3.8435492537313434 0.6444402985074619
H -2.62515223880597 -2.2736492537313433 1.7424402985074618
H -4.67195223880597 -1.3478492537313436 1.5102402985074619
H -4.83415223880597 -1.6757492537313432 -0.1945597014925382
H -3.7169522388059697 0.17335074626865676 -0.900559701492538
H -3.9132522388059705 -4.043149253731343 -0.34225970149253815
H -4.35435223880597 -3.9354492537313432 1.3449402985074619
H -2.78115223880597 -4.545049253731343 0.8904402985074619
H -5.24235223880597 1.138950746268657 1.5249402985074618
H -5.92805223880597 0.6501507462686567 -0.006059701492538094
H -4.89895223880597 2.059650746268657 0.08004029850746197
O 5.52090715589809 10.128142329147357 -6.647947251319361
H 4.5568095186373805 10.10320658942383 -6.742081791275522
H 5.6600749893870494 10.489166488219624 -5.759546545000331
O 0.47520327790968825 6.387979176051868 -1.6288530705474713
H 1.3471033471220415 6.0429014649155395 -1.3845602145643143
H -0.09188217872833504 6.140272495239286 -0.8831873079899712
O -1.8301152331983845 10.907581785667647 2.496640856334081
H -1.8602853750639117 10.861509148525002 1.5292038136555732
H -2.475460839145659 10.243807986419716 2.7828144690528474
O -5.923003628427696 -3.7640272383163356 -8.823090156173212
H -5.819185952465438 -4.685764182210599 -9.103429688380604
H -5.101250087907543 -3.3381513744035303 -9.10999225006434
O -1.337303975112097 -5.581338793770727 -1.4642652218301226
H -1.7253433409731587 -5.390438326270599 -2.33141562340437
H -0.9384485195349958 -6.457587708885402 -1.5741019580195155
O 2.2079014307182128 1.9033545342957776 -4.410755757314674
H 1.8049392963500832 2.749469043049096 -4.657087065196181
H 2.5517899333242173 2.058906593758899 -3.518283797602672
O 14.750790129844697 -0.706510428801886 -14.649724316118927
H 14.80835274877207 0.24216766574620807 -14.838572865826944
H 14.443575384506202 -1.092927481889577 -15.483548581554773
O -5.090710404188139 -11.018228583926431 5.9815113526143735
H -5.2342140498540655 -11.31319443747294 6.893305850197117
H -4.9498386655780715 -11.840680462099597 5.488875578791148
O 8.267660961531867 -3.447268961034713 -9.454520698497538
H 8.500589941240037 -2.9996024410931996 -8.627292716478333
H 8.045705936980543 -2.722633192776886 -10.05834262153264
O -5.723652287478568 -5.314106990215023 9.707976242955478
H -4.841614541745557 -5.267022817087308 9.309529442688355
H -5.555300046657142 -5.6114285168423725 10.614739374712823
C -9.625048061503808 -6.863843242953625 9.770171646318742
O -9.182885964521839 -6.612827323511641 8.686519513261642
O -10.067210158485777 -7.11485916239561 10.853823779375842
C -1.3827393508880528 0.2932449683148974 7.748205111744324
O -1.658198934933065 -0.3770027195934497 6.765013597841125
O -1.5835626077502396 1.5079275184366072 7.86155318642177
O -0.8605212154702333 -0.13944413935877736 8.78199268157736


