%nprocshared=1
%mem=1GB
#p opt=(calcfc,cartesian,maxcycles=5000) iop(1/152=5000) pm6

Title

0 1
C -5.0710522388059704 1.0783507462686561 0.47044029850746183
C -3.8153522388059704 0.1782507462686569 0.19534029850746193
C -4.11845223880597 -1.3219492537313435 0.5608402985074619
C -2.96945223880597 -2.3874492537313436 0.7034402985074619
C -2.52015223880597 0.7359507462686565 0.7384402985074618
C -2.20305223880597 0.7852507462686571 2.097440298507462
C -1.5755522388059702 1.205650746268656 -0.18965970149253808
C -0.9533522388059701 1.2695507462686564 2.508640298507462
H -2.91125223880597 0.4298507462686567 2.840840298507462
C -0.32655223880597006 1.6562507462686575 0.21554029850746192
H -1.7850522388059702 1.178550746268657 -1.2573597014925382
C 0.004447761194029898 1.6956507462686563 1.569740298507462
H -0.7158522388059702 1.2676507462686573 3.5705402985074617
H 0.3943477611940298 1.9193507462686572 -0.5551597014925382
C -1.76045223880597 -2.1592492537313435 -0.1734597014925381
C -0.5287522388059701 -1.936549253731343 0.464840298507462
C -1.8068522388059702 -2.121249253731343 -1.5681597014925381
C 0.6114477611940299 -1.614449253731343 -0.2582597014925381
H -0.4544522388059702 -1.954049253731343 1.5506402985074619
C -0.6479522388059701 -1.8270492537313432 -2.2998597014925384
H -2.74345223880597 -2.290549253731343 -2.092259701492538
C 0.5698477611940298 -1.5506492537313434 -1.6506597014925382
H 1.5072477611940298 -1.351949253731343 0.2991402985074618
H -0.7173522388059701 -1.7640492537313435 -3.3840597014925375
C 1.7791477611940298 -1.082849253731343 -2.4255597014925376
H 1.4739477611940297 -0.9102492537313429 -3.464259701492538
H 2.1252477611940295 -0.1337492537313434 -2.0010597014925384
C 1.3965477611940298 2.0964507462686566 1.997440298507462
H 1.51704776119403 1.8448507462686567 3.057640298507462
H 2.1256477611940294 1.5207507462686571 1.4165402985074618
C 3.94864776119403 -1.4275492537313434 -3.522959701492538
H 4.81734776119403 -2.087049253731343 -3.615159701492538
H 3.4305477611940303 -1.3641492537313429 -4.484459701492538
H 4.26984776119403 -0.441449253731343 -3.176459701492538
C 2.60904776119403 -3.4296492537313434 -2.8992597014925376
H 1.9825477611940296 -3.869549253731343 -2.119359701492538
H 2.06294776119403 -3.373349253731343 -3.845759701492538
H 3.5215477611940305 -4.019849253731343 -3.0234597014925377
C 3.7281477611940304 -2.060049253731343 -1.156659701492538
H 3.9048477611940298 -1.032549253731343 -0.8295597014925382
H 3.12924776119403 -2.623249253731343 -0.4404597014925382
H 4.68244776119403 -2.5769492537313434 -1.3005597014925383
C 3.1110477611940297 3.755250746268656 2.588740298507462
H 3.40124776119403 4.809350746268656 2.534540298507462
H 2.9823477611940303 3.461750746268656 3.634840298507462
H 3.86514776119403 3.1392507462686563 2.091540298507462
C 1.99744776119403 3.9574507462686572 0.40494029850746194
H 2.67914776119403 3.230350746268657 -0.04295970149253803
H 1.03214776119403 3.981150746268657 -0.10175970149253821
H 2.4399477611940297 4.958250746268657 0.368240298507462
C 0.7418477611940297 4.4992507462686575 2.475440298507462
H -0.18475223880597014 4.424250746268656 1.901240298507462
H 0.57844776119403 4.189650746268656 3.511940298507462
H 1.1210477611940297 5.524350746268658 2.4432402985074617
N 3.00114776119403 -2.025349253731343 -2.490159701492538
N 1.7831477611940298 3.586450746268657 1.862540298507462
C -3.55075223880597 -3.8435492537313434 0.6444402985074619
H -2.62515223880597 -2.2736492537313433 1.7424402985074618
H -4.67195223880597 -1.3478492537313436 1.5102402985074619
H -4.83415223880597 -1.6757492537313432 -0.1945597014925382
H -3.7169522388059697 0.17335074626865676 -0.900559701492538
H -3.9132522388059705 -4.043149253731343 -0.34225970149253815
H -4.35435223880597 -3.9354492537313432 1.3449402985074619
H -2.78115223880597 -4.545049253731343 0.8904402985074619
H -5.24235223880597 1.138950746268657 1.5249402985074618
H -5.92805223880597 0.6501507462686567 -0.006059701492538094
H -4.89895223880597 2.059650746268657 0.08004029850746197
O -7.272690512764136 -1.6125736359568006 9.716795640350725
H -7.446490466392192 -0.8864057109454013 10.334404802931337
H -6.358419237433081 -1.4640209131198219 9.432187017954556
O -2.3800402281322017 -3.2882500055473995 7.002046145792991
H -2.8232916782832116 -2.5070361435889508 7.365639889857701
H -3.075161375673086 -3.963017230598279 6.98065160119444
O 8.67874500045716 -5.411773159813016 12.903868505052165
H 8.018550016338782 -4.9776847717755714 13.464829476257815
H 8.527642927105326 -5.029882919786945 12.026206866206302
O 12.244294485413795 -5.426712164435973 12.5275925312863
H 12.08050394941559 -5.764313111837889 13.420993682802656
H 12.43006994254068 -6.222615739859141 12.007028488676832
O 8.411382718882182 -4.8399458142425615 -9.093796842644116
H 8.852133536945573 -5.435466929361614 -8.469248466036015
H 8.526412908664676 -3.9617458884625103 -8.700738462631024
O 4.725455586246952 -9.068991114414695 -6.55500120258426
H 5.063268242590929 -8.34241833901662 -6.010077383904838
H 3.894750534760321 -8.724371064310876 -6.915733905289512
O -1.5925709079268824 1.1604171599624769 9.2983801246794
H -1.6902941576854729 1.9393642284358832 8.730349326330131
H -2.4857448447401715 0.7868557162517974 9.339050884080258
O -1.5313391180681601 8.656123412346828 -1.5901046411258264
H -1.258983268343553 8.986583529272913 -0.7208602801191034
H -0.8958931433440707 9.056532668757468 -2.2023486977630715
O 0.8082783038957602 -1.449680908161716 -6.807845337810244
H 1.264797220948306 -2.2955450444964396 -6.685078493198663
H 1.5261769981943496 -0.8150218633363118 -6.952037244121539
O 3.664080018234866 1.9184340307628744 -3.389166842285177
H 3.1542616361211095 1.3935895681786017 -4.024454859056735
H 2.994143685550341 2.450402127707151 -2.9340215926310766
C -1.3908332930253917 0.287040033271847 -5.876164137653547
O -1.9153402561517114 0.7172577534340701 -4.889947418980403
O -0.866326329899072 -0.1431776868903759 -6.862380856326692
C 2.679054192301945 9.106045841596861 -3.9249397088683833
O 2.479464668875231 9.59401543760025 -2.8232023562681428
O 3.7661730304663963 9.096716830584079 -4.5137665640316795
O 1.8247908742232433 8.546037183686567 -4.621555005033116


