%nprocshared=1
%mem=1GB
#p opt=(calcfc,cartesian,maxcycles=5000) iop(1/152=5000) pm6

Title

0 1
C -5.0710522388059704 1.0783507462686561 0.47044029850746183
C -3.8153522388059704 0.1782507462686569 0.19534029850746193
C -4.11845223880597 -1.3219492537313435 0.5608402985074619
C -2.96945223880597 -2.3874492537313436 0.7034402985074619
C -2.52015223880597 0.7359507462686565 0.7384402985074618
C -2.20305223880597 0.7852507462686571 2.097440298507462
C -1.5755522388059702 1.205650746268656 -0.18965970149253808
C -0.9533522388059701 1.2695507462686564 2.508640298507462
H -2.91125223880597 0.4298507462686567 2.840840298507462
C -0.32655223880597006 1.6562507462686575 0.21554029850746192
H -1.7850522388059702 1.178550746268657 -1.2573597014925382
C 0.004447761194029898 1.6956507462686563 1.569740298507462
H -0.7158522388059702 1.2676507462686573 3.5705402985074617
H 0.3943477611940298 1.9193507462686572 -0.5551597014925382
C -1.76045223880597 -2.1592492537313435 -0.1734597014925381
C -0.5287522388059701 -1.936549253731343 0.464840298507462
C -1.8068522388059702 -2.121249253731343 -1.5681597014925381
C 0.6114477611940299 -1.614449253731343 -0.2582597014925381
H -0.4544522388059702 -1.954049253731343 1.5506402985074619
C -0.6479522388059701 -1.8270492537313432 -2.2998597014925384
H -2.74345223880597 -2.290549253731343 -2.092259701492538
C 0.5698477611940298 -1.5506492537313434 -1.6506597014925382
H 1.5072477611940298 -1.351949253731343 0.2991402985074618
H -0.7173522388059701 -1.7640492537313435 -3.3840597014925375
C 1.7791477611940298 -1.082849253731343 -2.4255597014925376
H 1.4739477611940297 -0.9102492537313429 -3.464259701492538
H 2.1252477611940295 -0.1337492537313434 -2.0010597014925384
C 1.3965477611940298 2.0964507462686566 1.997440298507462
H 1.51704776119403 1.8448507462686567 3.057640298507462
H 2.1256477611940294 1.5207507462686571 1.4165402985074618
C 3.94864776119403 -1.4275492537313434 -3.522959701492538
H 4.81734776119403 -2.087049253731343 -3.615159701492538
H 3.4305477611940303 -1.3641492537313429 -4.484459701492538
H 4.26984776119403 -0.441449253731343 -3.176459701492538
C 2.60904776119403 -3.4296492537313434 -2.8992597014925376
H 1.9825477611940296 -3.869549253731343 -2.119359701492538
H 2.06294776119403 -3.373349253731343 -3.845759701492538
H 3.5215477611940305 -4.019849253731343 -3.0234597014925377
C 3.7281477611940304 -2.060049253731343 -1.156659701492538
H 3.9048477611940298 -1.032549253731343 -0.8295597014925382
H 3.12924776119403 -2.623249253731343 -0.4404597014925382
H 4.68244776119403 -2.5769492537313434 -1.3005597014925383
C 3.1110477611940297 3.755250746268656 2.588740298507462
H 3.40124776119403 4.809350746268656 2.534540298507462
H 2.9823477611940303 3.461750746268656 3.634840298507462
H 3.86514776119403 3.1392507462686563 2.091540298507462
C 1.99744776119403 3.9574507462686572 0.40494029850746194
H 2.67914776119403 3.230350746268657 -0.04295970149253803
H 1.03214776119403 3.981150746268657 -0.10175970149253821
H 2.4399477611940297 4.958250746268657 0.368240298507462
C 0.7418477611940297 4.4992507462686575 2.475440298507462
H -0.18475223880597014 4.424250746268656 1.901240298507462
H 0.57844776119403 4.189650746268656 3.511940298507462
H 1.1210477611940297 5.524350746268658 2.4432402985074617
N 3.00114776119403 -2.025349253731343 -2.490159701492538
N 1.7831477611940298 3.586450746268657 1.862540298507462
C -3.55075223880597 -3.8435492537313434 0.6444402985074619
H -2.62515223880597 -2.2736492537313433 1.7424402985074618
H -4.67195223880597 -1.3478492537313436 1.5102402985074619
H -4.83415223880597 -1.6757492537313432 -0.1945597014925382
H -3.7169522388059697 0.17335074626865676 -0.900559701492538
H -3.9132522388059705 -4.043149253731343 -0.34225970149253815
H -4.35435223880597 -3.9354492537313432 1.3449402985074619
H -2.78115223880597 -4.545049253731343 0.8904402985074619
H -5.24235223880597 1.138950746268657 1.5249402985074618
H -5.92805223880597 0.6501507462686567 -0.006059701492538094
H -4.89895223880597 2.059650746268657 0.08004029850746197
O -5.309528323352675 -2.3457553779585933 -6.534174097781087
H -4.358281064003417 -2.4992733755956014 -6.636781275317798
H -5.505267346337912 -2.675924492574671 -5.64443450951134
O 5.0020976569085 -6.0562514967307735 6.698902099686777
H 5.5792395887664625 -5.639577617534644 6.04143922941431
H 5.054904516048696 -5.4650991207538935 7.4648735406065
O -2.9722828959605576 1.3914019885408861 -6.603428716374294
H -3.5223086682963984 0.6906250541220246 -6.984677578474715
H -3.562504010471243 1.8380775738331658 -5.978063301764912
O 5.6489091231041275 1.2050766200870644 15.015580962044336
H 5.673685724424967 1.0299132193577258 14.062863133948355
H 5.566801762886882 0.3252648516910325 15.41326372240742
O -0.49354047169477916 -6.623208002318629 0.5201922506706722
H -0.13999633793456423 -6.554781175291134 1.4197986488953012
H -0.6210951590984212 -5.701971425649256 0.24813542604049876
O 4.0833852833125155 -0.32618789176867724 11.038354330125594
H 4.928886288584033 -0.36381162864328864 10.566464659324842
H 4.053663473228468 0.5747382524475495 11.393897071540758
O 2.07139803553661 -7.4933270573596165 -3.4962996871124976
H 2.848328112237204 -6.914552308331733 -3.515451781142163
H 1.423870438893251 -7.034367826766784 -4.0522010997199045
O 4.016639962842742 -2.5242396103448232 4.46090350726476
H 3.970892071641078 -2.2901620163550183 3.521711212075673
H 4.28607781280143 -3.455019981242308 4.457285432973106
O -0.9312685172027705 1.3124696191067364 -3.9865341913785515
H -0.9054480429747706 0.7870717255143902 -4.800326372109828
H -1.4660138217811685 2.085013341314431 -4.22356921159463
O -0.3998771318864724 0.5707597443236647 -9.757015136128656
H -0.5250351922193071 0.6279300423900611 -8.797830913024082
H -1.0979760325250794 -0.03477730926692246 -10.048467955562604
C -10.20263892657049 -9.213861901664425 10.390158755392957
O -11.293423196418459 -9.60363157278876 10.088351635821763
O -9.111854656722521 -8.824092230540089 10.69196587496415
C 7.981401914617212 -4.295040038431115 8.811470110904123
O 9.141132398051521 -4.458641731175291 9.157931061841547
O 7.29455071963761 -5.126096669529146 8.206315770290853
O 7.315148935097958 -3.2730897107157837 9.01240014689736


