%nprocshared=1
%mem=1GB
#p opt=(calcfc,cartesian,maxcycles=5000) iop(1/152=5000) pm6

Title

0 1
C -5.0710522388059704 1.0783507462686561 0.47044029850746183
C -3.8153522388059704 0.1782507462686569 0.19534029850746193
C -4.11845223880597 -1.3219492537313435 0.5608402985074619
C -2.96945223880597 -2.3874492537313436 0.7034402985074619
C -2.52015223880597 0.7359507462686565 0.7384402985074618
C -2.20305223880597 0.7852507462686571 2.097440298507462
C -1.5755522388059702 1.205650746268656 -0.18965970149253808
C -0.9533522388059701 1.2695507462686564 2.508640298507462
H -2.91125223880597 0.4298507462686567 2.840840298507462
C -0.32655223880597006 1.6562507462686575 0.21554029850746192
H -1.7850522388059702 1.178550746268657 -1.2573597014925382
C 0.004447761194029898 1.6956507462686563 1.569740298507462
H -0.7158522388059702 1.2676507462686573 3.5705402985074617
H 0.3943477611940298 1.9193507462686572 -0.5551597014925382
C -1.76045223880597 -2.1592492537313435 -0.1734597014925381
C -0.5287522388059701 -1.936549253731343 0.464840298507462
C -1.8068522388059702 -2.121249253731343 -1.5681597014925381
C 0.6114477611940299 -1.614449253731343 -0.2582597014925381
H -0.4544522388059702 -1.954049253731343 1.5506402985074619
C -0.6479522388059701 -1.8270492537313432 -2.2998597014925384
H -2.74345223880597 -2.290549253731343 -2.092259701492538
C 0.5698477611940298 -1.5506492537313434 -1.6506597014925382
H 1.5072477611940298 -1.351949253731343 0.2991402985074618
H -0.7173522388059701 -1.7640492537313435 -3.3840597014925375
C 1.7791477611940298 -1.082849253731343 -2.4255597014925376
H 1.4739477611940297 -0.9102492537313429 -3.464259701492538
H 2.1252477611940295 -0.1337492537313434 -2.0010597014925384
C 1.3965477611940298 2.0964507462686566 1.997440298507462
H 1.51704776119403 1.8448507462686567 3.057640298507462
H 2.1256477611940294 1.5207507462686571 1.4165402985074618
C 3.94864776119403 -1.4275492537313434 -3.522959701492538
H 4.81734776119403 -2.087049253731343 -3.615159701492538
H 3.4305477611940303 -1.3641492537313429 -4.484459701492538
H 4.26984776119403 -0.441449253731343 -3.176459701492538
C 2.60904776119403 -3.4296492537313434 -2.8992597014925376
H 1.9825477611940296 -3.869549253731343 -2.119359701492538
H 2.06294776119403 -3.373349253731343 -3.845759701492538
H 3.5215477611940305 -4.019849253731343 -3.0234597014925377
C 3.7281477611940304 -2.060049253731343 -1.156659701492538
H 3.9048477611940298 -1.032549253731343 -0.8295597014925382
H 3.12924776119403 -2.623249253731343 -0.4404597014925382
H 4.68244776119403 -2.5769492537313434 -1.3005597014925383
C 3.1110477611940297 3.755250746268656 2.588740298507462
H 3.40124776119403 4.809350746268656 2.534540298507462
H 2.9823477611940303 3.461750746268656 3.634840298507462
H 3.86514776119403 3.1392507462686563 2.091540298507462
C 1.99744776119403 3.9574507462686572 0.40494029850746194
H 2.67914776119403 3.230350746268657 -0.04295970149253803
H 1.03214776119403 3.981150746268657 -0.10175970149253821
H 2.4399477611940297 4.958250746268657 0.368240298507462
C 0.7418477611940297 4.4992507462686575 2.475440298507462
H -0.18475223880597014 4.424250746268656 1.901240298507462
H 0.57844776119403 4.189650746268656 3.511940298507462
H 1.1210477611940297 5.524350746268658 2.4432402985074617
N 3.00114776119403 -2.025349253731343 -2.490159701492538
N 1.7831477611940298 3.586450746268657 1.862540298507462
C -3.55075223880597 -3.8435492537313434 0.6444402985074619
H -2.62515223880597 -2.2736492537313433 1.7424402985074618
H -4.67195223880597 -1.3478492537313436 1.5102402985074619
H -4.83415223880597 -1.6757492537313432 -0.1945597014925382
H -3.7169522388059697 0.17335074626865676 -0.900559701492538
H -3.9132522388059705 -4.043149253731343 -0.34225970149253815
H -4.35435223880597 -3.9354492537313432 1.3449402985074619
H -2.78115223880597 -4.545049253731343 0.8904402985074619
H -5.24235223880597 1.138950746268657 1.5249402985074618
H -5.92805223880597 0.6501507462686567 -0.006059701492538094
H -4.89895223880597 2.059650746268657 0.08004029850746197
O -7.811022280193918 4.282662885386783 -7.830678488357234
H -7.860049856963544 4.136252501917439 -8.78730153492702
H -7.651501121964508 3.3989756848930193 -7.466519352730182
O -4.093791575641083 -1.2248904033958743 -7.805801972491009
H -4.7877285841297 -0.6872560926407848 -8.216128833723333
H -4.564851267810041 -1.744365426194059 -7.137064048186943
O 9.996490479723272 4.611816496985584 13.219466764115289
H 10.040695561745276 4.452080565571828 14.174190650816994
H 9.1613659897478 5.088618530421933 13.100349798681437
O 3.938007695644845 6.581600586475203 -4.963717381968373
H 4.727124453109039 7.08983641847599 -4.722971792061379
H 4.292230804084961 5.744979178944242 -5.300692980800002
O 2.254482008929615 -2.4716301344566705 6.892827809410918
H 2.3272966805128465 -2.1235626973137207 5.991431980874439
H 3.086137167732016 -2.2069307986505504 7.3138336321273645
O 1.721426473496607 -0.8219122863765946 3.9534109084007136
H 1.4149012110382277 -0.682950513557507 3.0447309614062843
H 2.6012890526868775 -1.2134926876793823 3.84631947384037
O 5.103493151933411 2.051015940549723 6.906858624730097
H 5.2374672022582045 2.6335263227107637 6.14416604877687
H 4.80093804692446 1.2180678270486796 6.5149150153319155
O -10.960825348017085 6.539385214226826 -12.955013726874242
H -10.918149088311072 6.5909679369319 -11.988325919732846
H -10.069905759671688 6.789740510992137 -13.24232271870015
O -8.380810649697384 0.7098606067852701 -8.845551778297612
H -9.218268046468843 1.077914179977243 -8.525912868348595
H -8.025156704978086 1.403148933002782 -9.421593020428869
O 3.871407788731964 -4.792901071712935 4.629785311737057
H 4.7083282559639335 -4.6647271817875895 5.101063300157509
H 3.5847849584157454 -3.8930525001572542 4.412801796900744
C -8.959161821269296 -6.1526836792830695 9.067644642183135
O -9.046736058351463 -6.36137497879748 7.8922311184365075
O -8.871587584187129 -5.943992379768659 10.243058165929762
C 1.5371250638258052 2.6359031891331606 6.167396781633701
O 1.1295563600189504 3.018088930523638 7.253489461544127
O 1.164308908558728 3.0727437869305896 5.07249501864861
O 2.3854766306802655 1.7531418146916788 5.9951168953736715


