%nprocshared=1
%mem=1GB
#p opt=(calcfc,cartesian,maxcycles=5000) iop(1/152=5000) pm6

Title

0 1
C -5.0710522388059704 1.0783507462686561 0.47044029850746183
C -3.8153522388059704 0.1782507462686569 0.19534029850746193
C -4.11845223880597 -1.3219492537313435 0.5608402985074619
C -2.96945223880597 -2.3874492537313436 0.7034402985074619
C -2.52015223880597 0.7359507462686565 0.7384402985074618
C -2.20305223880597 0.7852507462686571 2.097440298507462
C -1.5755522388059702 1.205650746268656 -0.18965970149253808
C -0.9533522388059701 1.2695507462686564 2.508640298507462
H -2.91125223880597 0.4298507462686567 2.840840298507462
C -0.32655223880597006 1.6562507462686575 0.21554029850746192
H -1.7850522388059702 1.178550746268657 -1.2573597014925382
C 0.004447761194029898 1.6956507462686563 1.569740298507462
H -0.7158522388059702 1.2676507462686573 3.5705402985074617
H 0.3943477611940298 1.9193507462686572 -0.5551597014925382
C -1.76045223880597 -2.1592492537313435 -0.1734597014925381
C -0.5287522388059701 -1.936549253731343 0.464840298507462
C -1.8068522388059702 -2.121249253731343 -1.5681597014925381
C 0.6114477611940299 -1.614449253731343 -0.2582597014925381
H -0.4544522388059702 -1.954049253731343 1.5506402985074619
C -0.6479522388059701 -1.8270492537313432 -2.2998597014925384
H -2.74345223880597 -2.290549253731343 -2.092259701492538
C 0.5698477611940298 -1.5506492537313434 -1.6506597014925382
H 1.5072477611940298 -1.351949253731343 0.2991402985074618
H -0.7173522388059701 -1.7640492537313435 -3.3840597014925375
C 1.7791477611940298 -1.082849253731343 -2.4255597014925376
H 1.4739477611940297 -0.9102492537313429 -3.464259701492538
H 2.1252477611940295 -0.1337492537313434 -2.0010597014925384
C 1.3965477611940298 2.0964507462686566 1.997440298507462
H 1.51704776119403 1.8448507462686567 3.057640298507462
H 2.1256477611940294 1.5207507462686571 1.4165402985074618
C 3.94864776119403 -1.4275492537313434 -3.522959701492538
H 4.81734776119403 -2.087049253731343 -3.615159701492538
H 3.4305477611940303 -1.3641492537313429 -4.484459701492538
H 4.26984776119403 -0.441449253731343 -3.176459701492538
C 2.60904776119403 -3.4296492537313434 -2.8992597014925376
H 1.9825477611940296 -3.869549253731343 -2.119359701492538
H 2.06294776119403 -3.373349253731343 -3.845759701492538
H 3.5215477611940305 -4.019849253731343 -3.0234597014925377
C 3.7281477611940304 -2.060049253731343 -1.156659701492538
H 3.9048477611940298 -1.032549253731343 -0.8295597014925382
H 3.12924776119403 -2.623249253731343 -0.4404597014925382
H 4.68244776119403 -2.5769492537313434 -1.3005597014925383
C 3.1110477611940297 3.755250746268656 2.588740298507462
H 3.40124776119403 4.809350746268656 2.534540298507462
H 2.9823477611940303 3.461750746268656 3.634840298507462
H 3.86514776119403 3.1392507462686563 2.091540298507462
C 1.99744776119403 3.9574507462686572 0.40494029850746194
H 2.67914776119403 3.230350746268657 -0.04295970149253803
H 1.03214776119403 3.981150746268657 -0.10175970149253821
H 2.4399477611940297 4.958250746268657 0.368240298507462
C 0.7418477611940297 4.4992507462686575 2.475440298507462
H -0.18475223880597014 4.424250746268656 1.901240298507462
H 0.57844776119403 4.189650746268656 3.511940298507462
H 1.1210477611940297 5.524350746268658 2.4432402985074617
N 3.00114776119403 -2.025349253731343 -2.490159701492538
N 1.7831477611940298 3.586450746268657 1.862540298507462
C -3.55075223880597 -3.8435492537313434 0.6444402985074619
H -2.62515223880597 -2.2736492537313433 1.7424402985074618
H -4.67195223880597 -1.3478492537313436 1.5102402985074619
H -4.83415223880597 -1.6757492537313432 -0.1945597014925382
H -3.7169522388059697 0.17335074626865676 -0.900559701492538
H -3.9132522388059705 -4.043149253731343 -0.34225970149253815
H -4.35435223880597 -3.9354492537313432 1.3449402985074619
H -2.78115223880597 -4.545049253731343 0.8904402985074619
H -5.24235223880597 1.138950746268657 1.5249402985074618
H -5.92805223880597 0.6501507462686567 -0.006059701492538094
H -4.89895223880597 2.059650746268657 0.08004029850746197
O -6.188793065400514 10.101618138503452 -6.398604917507825
H -5.500885285024523 9.581953183145146 -6.840983236111516
H -5.715772967892071 10.87720856109501 -6.0614500153673525
O -1.4357992190471003 0.20433001223568747 -9.805787212740666
H -0.8475330384858427 0.9171824207124485 -10.096908667526728
H -0.8315484963020132 -0.47866366041569763 -9.478124808000343
O 6.8642312583111815 -5.699110675601867 -8.266634299839339
H 5.992289967217591 -5.692189815592 -8.689290003081076
H 6.76511300938772 -6.327651770877587 -7.53583090043568
O 1.0583464133984108 -1.6938797363246958 4.751809822092455
H 1.0490676755168586 -1.6980694918916837 5.720759618455309
H 0.13764063346593713 -1.513194074487767 4.509703434928701
O -5.078057786659547 -9.480454498262285 -5.304015896679111
H -4.276334723533325 -9.517484045143036 -4.76102759145577
H -5.613866005129186 -10.220431235049942 -4.9810516164042165
O 4.100474534526535 14.412169403360911 -4.582363999783448
H 4.81470792245814 14.614238430728287 -3.959462617024873
H 3.6955567694866254 13.609110209348293 -4.22167094638917
O 4.550992372812514 0.8395844905738912 -6.61855656314882
H 4.469887674435048 0.7839792400813919 -7.582557310513036
H 5.49923013622282 0.9736508816919636 -6.470795637613022
O -1.3929698479441224 3.908304001839734 -3.4922963494693864
H -1.2694438582774326 3.746330255697961 -2.544945732043258
H -1.1545346506006902 4.840924084229155 -3.60333860670395
O 10.476121957047537 5.918611513227573 11.566766046941975
H 10.3973883676714 5.189992717073 12.200708495981486
H 10.471015041362502 5.479084017341267 10.703197031708045
O 4.191009076185743 -0.2865089864189424 4.252204382724981
H 3.3863502955670133 -0.8117918846733836 4.376982106997364
H 4.317091080268806 -0.27608558166388886 3.2914980669449143
C -8.596752711889179 -2.50198935644968 -8.641456770731484
O -7.556642641420889 -2.7861380469382278 -8.121602156147663
O -9.636862782357468 -2.2178406659611323 -9.161311385315305
C -13.103195106524973 -7.369232898517408 -13.094180669844397
O -14.121878494408811 -7.53809923153141 -13.746517864417807
O -12.539733058031901 -8.235727662516723 -12.415705314382047
O -12.47811773737744 -6.305701429275185 -13.011552097842465


