%nprocshared=1
%mem=1GB
#p opt=(calcfc,cartesian,maxcycles=5000) iop(1/152=5000) pm6

Title

0 1
C -5.0710522388059704 1.0783507462686561 0.47044029850746183
C -3.8153522388059704 0.1782507462686569 0.19534029850746193
C -4.11845223880597 -1.3219492537313435 0.5608402985074619
C -2.96945223880597 -2.3874492537313436 0.7034402985074619
C -2.52015223880597 0.7359507462686565 0.7384402985074618
C -2.20305223880597 0.7852507462686571 2.097440298507462
C -1.5755522388059702 1.205650746268656 -0.18965970149253808
C -0.9533522388059701 1.2695507462686564 2.508640298507462
H -2.91125223880597 0.4298507462686567 2.840840298507462
C -0.32655223880597006 1.6562507462686575 0.21554029850746192
H -1.7850522388059702 1.178550746268657 -1.2573597014925382
C 0.004447761194029898 1.6956507462686563 1.569740298507462
H -0.7158522388059702 1.2676507462686573 3.5705402985074617
H 0.3943477611940298 1.9193507462686572 -0.5551597014925382
C -1.76045223880597 -2.1592492537313435 -0.1734597014925381
C -0.5287522388059701 -1.936549253731343 0.464840298507462
C -1.8068522388059702 -2.121249253731343 -1.5681597014925381
C 0.6114477611940299 -1.614449253731343 -0.2582597014925381
H -0.4544522388059702 -1.954049253731343 1.5506402985074619
C -0.6479522388059701 -1.8270492537313432 -2.2998597014925384
H -2.74345223880597 -2.290549253731343 -2.092259701492538
C 0.5698477611940298 -1.5506492537313434 -1.6506597014925382
H 1.5072477611940298 -1.351949253731343 0.2991402985074618
H -0.7173522388059701 -1.7640492537313435 -3.3840597014925375
C 1.7791477611940298 -1.082849253731343 -2.4255597014925376
H 1.4739477611940297 -0.9102492537313429 -3.464259701492538
H 2.1252477611940295 -0.1337492537313434 -2.0010597014925384
C 1.3965477611940298 2.0964507462686566 1.997440298507462
H 1.51704776119403 1.8448507462686567 3.057640298507462
H 2.1256477611940294 1.5207507462686571 1.4165402985074618
C 3.94864776119403 -1.4275492537313434 -3.522959701492538
H 4.81734776119403 -2.087049253731343 -3.615159701492538
H 3.4305477611940303 -1.3641492537313429 -4.484459701492538
H 4.26984776119403 -0.441449253731343 -3.176459701492538
C 2.60904776119403 -3.4296492537313434 -2.8992597014925376
H 1.9825477611940296 -3.869549253731343 -2.119359701492538
H 2.06294776119403 -3.373349253731343 -3.845759701492538
H 3.5215477611940305 -4.019849253731343 -3.0234597014925377
C 3.7281477611940304 -2.060049253731343 -1.156659701492538
H 3.9048477611940298 -1.032549253731343 -0.8295597014925382
H 3.12924776119403 -2.623249253731343 -0.4404597014925382
H 4.68244776119403 -2.5769492537313434 -1.3005597014925383
C 3.1110477611940297 3.755250746268656 2.588740298507462
H 3.40124776119403 4.809350746268656 2.534540298507462
H 2.9823477611940303 3.461750746268656 3.634840298507462
H 3.86514776119403 3.1392507462686563 2.091540298507462
C 1.99744776119403 3.9574507462686572 0.40494029850746194
H 2.67914776119403 3.230350746268657 -0.04295970149253803
H 1.03214776119403 3.981150746268657 -0.10175970149253821
H 2.4399477611940297 4.958250746268657 0.368240298507462
C 0.7418477611940297 4.4992507462686575 2.475440298507462
H -0.18475223880597014 4.424250746268656 1.901240298507462
H 0.57844776119403 4.189650746268656 3.511940298507462
H 1.1210477611940297 5.524350746268658 2.4432402985074617
N 3.00114776119403 -2.025349253731343 -2.490159701492538
N 1.7831477611940298 3.586450746268657 1.862540298507462
C -3.55075223880597 -3.8435492537313434 0.6444402985074619
H -2.62515223880597 -2.2736492537313433 1.7424402985074618
H -4.67195223880597 -1.3478492537313436 1.5102402985074619
H -4.83415223880597 -1.6757492537313432 -0.1945597014925382
H -3.7169522388059697 0.17335074626865676 -0.900559701492538
H -3.9132522388059705 -4.043149253731343 -0.34225970149253815
H -4.35435223880597 -3.9354492537313432 1.3449402985074619
H -2.78115223880597 -4.545049253731343 0.8904402985074619
H -5.24235223880597 1.138950746268657 1.5249402985074618
H -5.92805223880597 0.6501507462686567 -0.006059701492538094
H -4.89895223880597 2.059650746268657 0.08004029850746197
O 5.13683828949391 1.9486713238256788 -10.550305313443335
H 5.989119618177617 1.7292707811474413 -10.955826330839018
H 4.876595364048513 1.1329413632110261 -10.096631206389342
O -2.446897361350208 -4.055055038636963 6.775199278929126
H -2.0915244060885447 -4.1535262718826536 7.671291258466755
H -3.3949397721635997 -3.9104139311403423 6.913967004360085
O 7.226235615708947 -2.811918498755295 8.161278707771242
H 6.959355665965845 -3.070706809669723 9.056136830301947
H 6.391929117775903 -2.774357085049469 7.66986874449504
O -7.227161381339851 0.0037495705986387573 13.794587041003812
H -7.351272199397246 0.05445465442767422 14.754270768184291
H -7.95077003389012 0.5395034812305725 13.436368937752492
O 2.3538002574791803 3.3461793884002637 -6.602954627299903
H 2.480786139635304 3.4942816201114595 -5.653793064869568
H 2.9544851078962835 3.9810784016016383 -7.021335910121329
O 10.91666546847663 -2.660730142361978 11.671988780568539
H 11.491558413923538 -2.691324662036407 12.451430525371363
H 11.53426759987262 -2.598102517073934 10.927940843842748
O 3.8991873630483265 4.833437222275064 -4.578516348128968
H 4.491588483810078 4.904292451680228 -5.342065826215466
H 4.080666000323829 3.9506285127404297 -4.222600303418395
O -5.1043391956183815 0.7462458507050118 -5.275229387363509
H -4.805245074239667 1.056534688530276 -4.407340626877613
H -4.988277987602612 -0.21484910229364873 -5.2329418996819
O 3.7011083619676337 -0.3468163826435965 4.193735342001247
H 3.4132850257921286 -0.1891121938892794 3.2820037625864797
H 3.9257773181918125 0.5359285765328758 4.524260895412274
O -5.784967162637605 -0.22229581401416584 6.020784018306253
H -5.564616520035557 0.4580894973408803 5.366957757517378
H -5.017544192161521 -0.23579368332671435 6.61225822417637
C 12.632947043593473 1.2339170733709928 -14.92895559418844
O 12.360591595307199 2.3906137874047415 -14.785103312898533
O 12.905302491879748 0.07722035933724403 -15.072807875478349
C 3.386256608613142 11.29680331499242 -3.669730563427232
O 4.518071952163783 11.482678417323742 -3.249944935949748
O 2.358297916785938 11.323919805769203 -2.9832925925042533
O 3.0936858617995298 11.052816944597096 -4.8459624255914235


