%nprocshared=1
%mem=1GB
#p opt=(calcfc,cartesian,maxcycles=5000) iop(1/152=5000) pm6

Title

0 1
C -5.0710522388059704 1.0783507462686561 0.47044029850746183
C -3.8153522388059704 0.1782507462686569 0.19534029850746193
C -4.11845223880597 -1.3219492537313435 0.5608402985074619
C -2.96945223880597 -2.3874492537313436 0.7034402985074619
C -2.52015223880597 0.7359507462686565 0.7384402985074618
C -2.20305223880597 0.7852507462686571 2.097440298507462
C -1.5755522388059702 1.205650746268656 -0.18965970149253808
C -0.9533522388059701 1.2695507462686564 2.508640298507462
H -2.91125223880597 0.4298507462686567 2.840840298507462
C -0.32655223880597006 1.6562507462686575 0.21554029850746192
H -1.7850522388059702 1.178550746268657 -1.2573597014925382
C 0.004447761194029898 1.6956507462686563 1.569740298507462
H -0.7158522388059702 1.2676507462686573 3.5705402985074617
H 0.3943477611940298 1.9193507462686572 -0.5551597014925382
C -1.76045223880597 -2.1592492537313435 -0.1734597014925381
C -0.5287522388059701 -1.936549253731343 0.464840298507462
C -1.8068522388059702 -2.121249253731343 -1.5681597014925381
C 0.6114477611940299 -1.614449253731343 -0.2582597014925381
H -0.4544522388059702 -1.954049253731343 1.5506402985074619
C -0.6479522388059701 -1.8270492537313432 -2.2998597014925384
H -2.74345223880597 -2.290549253731343 -2.092259701492538
C 0.5698477611940298 -1.5506492537313434 -1.6506597014925382
H 1.5072477611940298 -1.351949253731343 0.2991402985074618
H -0.7173522388059701 -1.7640492537313435 -3.3840597014925375
C 1.7791477611940298 -1.082849253731343 -2.4255597014925376
H 1.4739477611940297 -0.9102492537313429 -3.464259701492538
H 2.1252477611940295 -0.1337492537313434 -2.0010597014925384
C 1.3965477611940298 2.0964507462686566 1.997440298507462
H 1.51704776119403 1.8448507462686567 3.057640298507462
H 2.1256477611940294 1.5207507462686571 1.4165402985074618
C 3.94864776119403 -1.4275492537313434 -3.522959701492538
H 4.81734776119403 -2.087049253731343 -3.615159701492538
H 3.4305477611940303 -1.3641492537313429 -4.484459701492538
H 4.26984776119403 -0.441449253731343 -3.176459701492538
C 2.60904776119403 -3.4296492537313434 -2.8992597014925376
H 1.9825477611940296 -3.869549253731343 -2.119359701492538
H 2.06294776119403 -3.373349253731343 -3.845759701492538
H 3.5215477611940305 -4.019849253731343 -3.0234597014925377
C 3.7281477611940304 -2.060049253731343 -1.156659701492538
H 3.9048477611940298 -1.032549253731343 -0.8295597014925382
H 3.12924776119403 -2.623249253731343 -0.4404597014925382
H 4.68244776119403 -2.5769492537313434 -1.3005597014925383
C 3.1110477611940297 3.755250746268656 2.588740298507462
H 3.40124776119403 4.809350746268656 2.534540298507462
H 2.9823477611940303 3.461750746268656 3.634840298507462
H 3.86514776119403 3.1392507462686563 2.091540298507462
C 1.99744776119403 3.9574507462686572 0.40494029850746194
H 2.67914776119403 3.230350746268657 -0.04295970149253803
H 1.03214776119403 3.981150746268657 -0.10175970149253821
H 2.4399477611940297 4.958250746268657 0.368240298507462
C 0.7418477611940297 4.4992507462686575 2.475440298507462
H -0.18475223880597014 4.424250746268656 1.901240298507462
H 0.57844776119403 4.189650746268656 3.511940298507462
H 1.1210477611940297 5.524350746268658 2.4432402985074617
N 3.00114776119403 -2.025349253731343 -2.490159701492538
N 1.7831477611940298 3.586450746268657 1.862540298507462
C -3.55075223880597 -3.8435492537313434 0.6444402985074619
H -2.62515223880597 -2.2736492537313433 1.7424402985074618
H -4.67195223880597 -1.3478492537313436 1.5102402985074619
H -4.83415223880597 -1.6757492537313432 -0.1945597014925382
H -3.7169522388059697 0.17335074626865676 -0.900559701492538
H -3.9132522388059705 -4.043149253731343 -0.34225970149253815
H -4.35435223880597 -3.9354492537313432 1.3449402985074619
H -2.78115223880597 -4.545049253731343 0.8904402985074619
H -5.24235223880597 1.138950746268657 1.5249402985074618
H -5.92805223880597 0.6501507462686567 -0.006059701492538094
H -4.89895223880597 2.059650746268657 0.08004029850746197
O 4.0054985105768095 -0.2399165271090824 -6.761055512756892
H 4.009639408638499 -0.21890954493461404 -7.729822211484281
H 4.627364763701632 0.45920717211209167 -6.509122266217664
O 1.1981367050108207 1.7669522017571264 -3.6227571071214415
H 0.43522587317497796 1.186960108346327 -3.479426750432768
H 1.4251024664751244 1.6291521920776955 -4.554668929535599
O 3.901680147201161 1.9438634151039695 -4.188211697950027
H 3.6326753500197286 1.0854215180858497 -4.548324576694052
H 3.276057647954057 2.5697250138869703 -4.582997325733754
O 4.53444063777269 -8.809756848087595 5.383826862420459
H 5.18287542677713 -8.090620592058213 5.3471836287638554
H 5.074120369785223 -9.613678893138161 5.346182784046881
O -2.833547937492478 0.21117708377778832 -6.020478667794236
H -3.732336001104056 0.16156741413676856 -6.379207331671909
H -2.862753890297068 0.9712752304935901 -5.4201789393418744
O 3.8528252225742974 5.482232529541416 4.380115883195272
H 3.8616203218891574 5.511444344643902 5.348638816835184
H 4.437945170389115 6.209048759426308 4.118706704042939
O 9.027107672771168 2.262178758048717 10.479182592499711
H 8.285170862251569 2.3793760677824607 11.091360603120133
H 9.308470613266415 1.3464645986342996 10.625005835721817
O 4.56582259903044 5.0218603779654245 7.527044631486436
H 4.471315503395614 4.3067160386759165 8.174041030052026
H 3.9381241886363383 5.695373901427005 7.829263399274082
O 2.4628219740570017 -2.527284814696024 4.707619375539905
H 3.237211603946303 -2.105344438150246 4.306054465892263
H 1.7248062182069073 -1.953864283417124 4.451721773509645
O -2.913200091931396 -3.132008477880314 5.726655373739092
H -2.168308320287803 -3.5404905287119237 6.19275195127005
H -2.6113232790744303 -3.0749119570977452 4.807649214089525
C -10.166179205692801 -2.192407766443285 -10.752796344427844
O -10.7056238646702 -1.9581087826845427 -11.795351716295631
O -9.626734546715403 -2.4267067502020274 -9.710240972560058
C 8.915349572932096 10.313940267091919 9.854450228803831
O 8.920011998849409 10.101645643741602 11.057232317663285
O 7.904171087631111 10.498931979024993 9.16748035939144
O 9.921102373112804 10.37664039435387 9.13808552882902


