%nprocshared=1
%mem=1GB
#p opt=(calcfc,cartesian,maxcycles=5000) iop(1/152=5000) pm6

Title

0 1
C -5.0710522388059704 1.0783507462686561 0.47044029850746183
C -3.8153522388059704 0.1782507462686569 0.19534029850746193
C -4.11845223880597 -1.3219492537313435 0.5608402985074619
C -2.96945223880597 -2.3874492537313436 0.7034402985074619
C -2.52015223880597 0.7359507462686565 0.7384402985074618
C -2.20305223880597 0.7852507462686571 2.097440298507462
C -1.5755522388059702 1.205650746268656 -0.18965970149253808
C -0.9533522388059701 1.2695507462686564 2.508640298507462
H -2.91125223880597 0.4298507462686567 2.840840298507462
C -0.32655223880597006 1.6562507462686575 0.21554029850746192
H -1.7850522388059702 1.178550746268657 -1.2573597014925382
C 0.004447761194029898 1.6956507462686563 1.569740298507462
H -0.7158522388059702 1.2676507462686573 3.5705402985074617
H 0.3943477611940298 1.9193507462686572 -0.5551597014925382
C -1.76045223880597 -2.1592492537313435 -0.1734597014925381
C -0.5287522388059701 -1.936549253731343 0.464840298507462
C -1.8068522388059702 -2.121249253731343 -1.5681597014925381
C 0.6114477611940299 -1.614449253731343 -0.2582597014925381
H -0.4544522388059702 -1.954049253731343 1.5506402985074619
C -0.6479522388059701 -1.8270492537313432 -2.2998597014925384
H -2.74345223880597 -2.290549253731343 -2.092259701492538
C 0.5698477611940298 -1.5506492537313434 -1.6506597014925382
H 1.5072477611940298 -1.351949253731343 0.2991402985074618
H -0.7173522388059701 -1.7640492537313435 -3.3840597014925375
C 1.7791477611940298 -1.082849253731343 -2.4255597014925376
H 1.4739477611940297 -0.9102492537313429 -3.464259701492538
H 2.1252477611940295 -0.1337492537313434 -2.0010597014925384
C 1.3965477611940298 2.0964507462686566 1.997440298507462
H 1.51704776119403 1.8448507462686567 3.057640298507462
H 2.1256477611940294 1.5207507462686571 1.4165402985074618
C 3.94864776119403 -1.4275492537313434 -3.522959701492538
H 4.81734776119403 -2.087049253731343 -3.615159701492538
H 3.4305477611940303 -1.3641492537313429 -4.484459701492538
H 4.26984776119403 -0.441449253731343 -3.176459701492538
C 2.60904776119403 -3.4296492537313434 -2.8992597014925376
H 1.9825477611940296 -3.869549253731343 -2.119359701492538
H 2.06294776119403 -3.373349253731343 -3.845759701492538
H 3.5215477611940305 -4.019849253731343 -3.0234597014925377
C 3.7281477611940304 -2.060049253731343 -1.156659701492538
H 3.9048477611940298 -1.032549253731343 -0.8295597014925382
H 3.12924776119403 -2.623249253731343 -0.4404597014925382
H 4.68244776119403 -2.5769492537313434 -1.3005597014925383
C 3.1110477611940297 3.755250746268656 2.588740298507462
H 3.40124776119403 4.809350746268656 2.534540298507462
H 2.9823477611940303 3.461750746268656 3.634840298507462
H 3.86514776119403 3.1392507462686563 2.091540298507462
C 1.99744776119403 3.9574507462686572 0.40494029850746194
H 2.67914776119403 3.230350746268657 -0.04295970149253803
H 1.03214776119403 3.981150746268657 -0.10175970149253821
H 2.4399477611940297 4.958250746268657 0.368240298507462
C 0.7418477611940297 4.4992507462686575 2.475440298507462
H -0.18475223880597014 4.424250746268656 1.901240298507462
H 0.57844776119403 4.189650746268656 3.511940298507462
H 1.1210477611940297 5.524350746268658 2.4432402985074617
N 3.00114776119403 -2.025349253731343 -2.490159701492538
N 1.7831477611940298 3.586450746268657 1.862540298507462
C -3.55075223880597 -3.8435492537313434 0.6444402985074619
H -2.62515223880597 -2.2736492537313433 1.7424402985074618
H -4.67195223880597 -1.3478492537313436 1.5102402985074619
H -4.83415223880597 -1.6757492537313432 -0.1945597014925382
H -3.7169522388059697 0.17335074626865676 -0.900559701492538
H -3.9132522388059705 -4.043149253731343 -0.34225970149253815
H -4.35435223880597 -3.9354492537313432 1.3449402985074619
H -2.78115223880597 -4.545049253731343 0.8904402985074619
H -5.24235223880597 1.138950746268657 1.5249402985074618
H -5.92805223880597 0.6501507462686567 -0.006059701492538094
H -4.89895223880597 2.059650746268657 0.08004029850746197
O 12.622691741287644 0.07988842620451553 12.968040280257148
H 12.296809551772132 0.5362746481014755 13.758280605676697
H 12.45477416346244 0.7076524995599962 12.24923717817602
O -0.04112624719686636 0.4315063371686712 10.560444926281724
H 0.9072053675553877 0.2657282678566832 10.450208194215804
H -0.2951322795555409 -0.14369056140571965 11.297731442973712
O 5.203407561051775 8.516668603103032 -4.9591503742488054
H 4.58715271248766 8.166670424065703 -5.6199821177295295
H 6.063015385947245 8.494566039221887 -5.405858118023589
O 2.6986622918201366 -0.13159859134431953 15.05329704859899
H 2.910221077035537 0.6303500831520171 15.613336738916972
H 2.6737426333552525 0.23629958215863425 14.157198901711507
O 4.528331979543546 -1.5452633852167588 -8.967465164879428
H 4.542800988449758 -2.0885475414433063 -8.165218114230763
H 4.765596060913824 -0.6594025092482151 -8.654546312108037
O -3.4444301780630546 -0.3544857126587821 12.62767356180375
H -2.8111204191706385 -0.9943934888822055 12.269338321950865
H -3.1755037196188685 -0.2520399306230947 13.552954797964823
O 8.300869786594907 0.453639376417701 -8.765593268577605
H 8.3509655520025 0.4445133504282186 -9.733257718083665
H 8.943014324720412 -0.21834026738831078 -8.49163032443018
O -5.505890819483507 -11.846869173727738 6.190138049742833
H -5.856529729921662 -11.545038706795399 7.04155926196282
H -6.259883435673353 -11.770766332324843 5.586262701213357
O -1.172276997807861 0.336887712366413 -3.31692879197732
H -0.4825660062159436 0.8419447366264978 -2.860657483189617
H -1.6483706147024964 1.0044686324746621 -3.8332935151716985
O -0.25501602071902935 -6.053178363343259 1.2216998358607414
H -0.9139855842135638 -5.343569365927246 1.1873262693587714
H -0.33822661481531363 -6.491729327286431 0.36163530726148707
C 6.324317742017013 -3.4912974889693564 -10.50551350852446
O 5.4131093030889605 -3.9593537560128786 -9.88628756510188
O 7.235526180945065 -3.023241221925834 -11.124739451947042
C -10.455521345294544 0.1206833586550273 11.964378803535658
O -9.888504182343544 0.7981504140134462 11.120989555072653
O -10.121194151346455 0.03420997891067051 13.151551556795429
O -11.45141966297275 -0.5832757263535977 11.761212536947085


