%nprocshared=1
%mem=1GB
#p opt=(calcfc,cartesian,maxcycles=5000) iop(1/152=5000) pm6

Title

0 1
C -5.0710522388059704 1.0783507462686561 0.47044029850746183
C -3.8153522388059704 0.1782507462686569 0.19534029850746193
C -4.11845223880597 -1.3219492537313435 0.5608402985074619
C -2.96945223880597 -2.3874492537313436 0.7034402985074619
C -2.52015223880597 0.7359507462686565 0.7384402985074618
C -2.20305223880597 0.7852507462686571 2.097440298507462
C -1.5755522388059702 1.205650746268656 -0.18965970149253808
C -0.9533522388059701 1.2695507462686564 2.508640298507462
H -2.91125223880597 0.4298507462686567 2.840840298507462
C -0.32655223880597006 1.6562507462686575 0.21554029850746192
H -1.7850522388059702 1.178550746268657 -1.2573597014925382
C 0.004447761194029898 1.6956507462686563 1.569740298507462
H -0.7158522388059702 1.2676507462686573 3.5705402985074617
H 0.3943477611940298 1.9193507462686572 -0.5551597014925382
C -1.76045223880597 -2.1592492537313435 -0.1734597014925381
C -0.5287522388059701 -1.936549253731343 0.464840298507462
C -1.8068522388059702 -2.121249253731343 -1.5681597014925381
C 0.6114477611940299 -1.614449253731343 -0.2582597014925381
H -0.4544522388059702 -1.954049253731343 1.5506402985074619
C -0.6479522388059701 -1.8270492537313432 -2.2998597014925384
H -2.74345223880597 -2.290549253731343 -2.092259701492538
C 0.5698477611940298 -1.5506492537313434 -1.6506597014925382
H 1.5072477611940298 -1.351949253731343 0.2991402985074618
H -0.7173522388059701 -1.7640492537313435 -3.3840597014925375
C 1.7791477611940298 -1.082849253731343 -2.4255597014925376
H 1.4739477611940297 -0.9102492537313429 -3.464259701492538
H 2.1252477611940295 -0.1337492537313434 -2.0010597014925384
C 1.3965477611940298 2.0964507462686566 1.997440298507462
H 1.51704776119403 1.8448507462686567 3.057640298507462
H 2.1256477611940294 1.5207507462686571 1.4165402985074618
C 3.94864776119403 -1.4275492537313434 -3.522959701492538
H 4.81734776119403 -2.087049253731343 -3.615159701492538
H 3.4305477611940303 -1.3641492537313429 -4.484459701492538
H 4.26984776119403 -0.441449253731343 -3.176459701492538
C 2.60904776119403 -3.4296492537313434 -2.8992597014925376
H 1.9825477611940296 -3.869549253731343 -2.119359701492538
H 2.06294776119403 -3.373349253731343 -3.845759701492538
H 3.5215477611940305 -4.019849253731343 -3.0234597014925377
C 3.7281477611940304 -2.060049253731343 -1.156659701492538
H 3.9048477611940298 -1.032549253731343 -0.8295597014925382
H 3.12924776119403 -2.623249253731343 -0.4404597014925382
H 4.68244776119403 -2.5769492537313434 -1.3005597014925383
C 3.1110477611940297 3.755250746268656 2.588740298507462
H 3.40124776119403 4.809350746268656 2.534540298507462
H 2.9823477611940303 3.461750746268656 3.634840298507462
H 3.86514776119403 3.1392507462686563 2.091540298507462
C 1.99744776119403 3.9574507462686572 0.40494029850746194
H 2.67914776119403 3.230350746268657 -0.04295970149253803
H 1.03214776119403 3.981150746268657 -0.10175970149253821
H 2.4399477611940297 4.958250746268657 0.368240298507462
C 0.7418477611940297 4.4992507462686575 2.475440298507462
H -0.18475223880597014 4.424250746268656 1.901240298507462
H 0.57844776119403 4.189650746268656 3.511940298507462
H 1.1210477611940297 5.524350746268658 2.4432402985074617
N 3.00114776119403 -2.025349253731343 -2.490159701492538
N 1.7831477611940298 3.586450746268657 1.862540298507462
C -3.55075223880597 -3.8435492537313434 0.6444402985074619
H -2.62515223880597 -2.2736492537313433 1.7424402985074618
H -4.67195223880597 -1.3478492537313436 1.5102402985074619
H -4.83415223880597 -1.6757492537313432 -0.1945597014925382
H -3.7169522388059697 0.17335074626865676 -0.900559701492538
H -3.9132522388059705 -4.043149253731343 -0.34225970149253815
H -4.35435223880597 -3.9354492537313432 1.3449402985074619
H -2.78115223880597 -4.545049253731343 0.8904402985074619
H -5.24235223880597 1.138950746268657 1.5249402985074618
H -5.92805223880597 0.6501507462686567 -0.006059701492538094
H -4.89895223880597 2.059650746268657 0.08004029850746197
O 8.25270264410676 -6.607885448897307 10.134026704676375
H 8.234227371487986 -6.594747685926936 11.102764760285732
H 8.948080028054026 -5.973253921370109 9.904559795377562
O 13.98678697052028 -5.268153327494548 13.655717256723253
H 13.139291512858172 -4.892322384905817 13.937621333910798
H 14.381855604397746 -5.596912035904556 14.477179629854716
O -1.3041790199945857 -1.83100999579733 3.81822608388767
H -1.867098735340673 -1.380900655917015 4.465906817835491
H -0.40361994522428457 -1.6631816853011059 4.134119982760126
O -3.9846390513524588 -0.7055278519763234 4.7003933538865255
H -4.467641613103584 0.13233552109992386 4.760898314833086
H -4.385930904863961 -1.257245212513964 5.388531963969322
O 5.664072288829272 -0.3730563473931434 7.320896540047802
H 6.064875780445078 -0.12365285004908988 6.474656731529476
H 5.1253073936367946 -1.1490092549739672 7.105046088982478
O -5.092897719119672 -2.9699922923291378 12.162801601583146
H -4.391850395234549 -2.3243321834547808 11.987807229154024
H -5.515066704458287 -2.64365668937563 12.971652865019838
O -3.024013705812131 11.490129705680287 2.8029883222152536
H -2.6674295131028845 12.02576667623778 2.078482900439896
H -2.244630924640164 11.05003735982946 3.1742606640832753
O 0.20719637230617532 -9.04758055576913 -0.4680342345181776
H -0.6274798820414754 -8.97538329466356 0.018864587432575602
H 0.770699896453691 -8.367950668681827 -0.0686234946137177
O -0.903210973582129 8.45687027595027 -1.6765595115049363
H -1.305789750827112 8.796259583340404 -0.8631023319059239
H -1.400946028585259 8.893695403878036 -2.3839530136887777
O -14.646107285198644 -2.4337246719730716 14.432564040593189
H -15.046814039045257 -2.6671854082522466 15.283385725165049
H -13.71636720005088 -2.2678058848595732 14.649396405456498
C -6.475911680230654 4.53189963115088 8.193055291449822
O -5.742533789230708 4.526976958523667 7.247036848930503
O -7.2092895712306 4.536822303778093 9.139073733969141
C -7.462228794918041 12.751047377207959 7.565514774954518
O -8.3165151692302 12.16481418255853 8.212276655986255
O -6.627259450424916 12.209463591089202 6.831931336980354
O -7.300472503680541 13.97662547259242 7.544500047764261


