%nprocshared=1
%mem=1GB
#p opt=(calcfc,cartesian,maxcycles=5000) iop(1/152=5000) pm6

Title

0 1
C -5.0710522388059704 1.0783507462686561 0.47044029850746183
C -3.8153522388059704 0.1782507462686569 0.19534029850746193
C -4.11845223880597 -1.3219492537313435 0.5608402985074619
C -2.96945223880597 -2.3874492537313436 0.7034402985074619
C -2.52015223880597 0.7359507462686565 0.7384402985074618
C -2.20305223880597 0.7852507462686571 2.097440298507462
C -1.5755522388059702 1.205650746268656 -0.18965970149253808
C -0.9533522388059701 1.2695507462686564 2.508640298507462
H -2.91125223880597 0.4298507462686567 2.840840298507462
C -0.32655223880597006 1.6562507462686575 0.21554029850746192
H -1.7850522388059702 1.178550746268657 -1.2573597014925382
C 0.004447761194029898 1.6956507462686563 1.569740298507462
H -0.7158522388059702 1.2676507462686573 3.5705402985074617
H 0.3943477611940298 1.9193507462686572 -0.5551597014925382
C -1.76045223880597 -2.1592492537313435 -0.1734597014925381
C -0.5287522388059701 -1.936549253731343 0.464840298507462
C -1.8068522388059702 -2.121249253731343 -1.5681597014925381
C 0.6114477611940299 -1.614449253731343 -0.2582597014925381
H -0.4544522388059702 -1.954049253731343 1.5506402985074619
C -0.6479522388059701 -1.8270492537313432 -2.2998597014925384
H -2.74345223880597 -2.290549253731343 -2.092259701492538
C 0.5698477611940298 -1.5506492537313434 -1.6506597014925382
H 1.5072477611940298 -1.351949253731343 0.2991402985074618
H -0.7173522388059701 -1.7640492537313435 -3.3840597014925375
C 1.7791477611940298 -1.082849253731343 -2.4255597014925376
H 1.4739477611940297 -0.9102492537313429 -3.464259701492538
H 2.1252477611940295 -0.1337492537313434 -2.0010597014925384
C 1.3965477611940298 2.0964507462686566 1.997440298507462
H 1.51704776119403 1.8448507462686567 3.057640298507462
H 2.1256477611940294 1.5207507462686571 1.4165402985074618
C 3.94864776119403 -1.4275492537313434 -3.522959701492538
H 4.81734776119403 -2.087049253731343 -3.615159701492538
H 3.4305477611940303 -1.3641492537313429 -4.484459701492538
H 4.26984776119403 -0.441449253731343 -3.176459701492538
C 2.60904776119403 -3.4296492537313434 -2.8992597014925376
H 1.9825477611940296 -3.869549253731343 -2.119359701492538
H 2.06294776119403 -3.373349253731343 -3.845759701492538
H 3.5215477611940305 -4.019849253731343 -3.0234597014925377
C 3.7281477611940304 -2.060049253731343 -1.156659701492538
H 3.9048477611940298 -1.032549253731343 -0.8295597014925382
H 3.12924776119403 -2.623249253731343 -0.4404597014925382
H 4.68244776119403 -2.5769492537313434 -1.3005597014925383
C 3.1110477611940297 3.755250746268656 2.588740298507462
H 3.40124776119403 4.809350746268656 2.534540298507462
H 2.9823477611940303 3.461750746268656 3.634840298507462
H 3.86514776119403 3.1392507462686563 2.091540298507462
C 1.99744776119403 3.9574507462686572 0.40494029850746194
H 2.67914776119403 3.230350746268657 -0.04295970149253803
H 1.03214776119403 3.981150746268657 -0.10175970149253821
H 2.4399477611940297 4.958250746268657 0.368240298507462
C 0.7418477611940297 4.4992507462686575 2.475440298507462
H -0.18475223880597014 4.424250746268656 1.901240298507462
H 0.57844776119403 4.189650746268656 3.511940298507462
H 1.1210477611940297 5.524350746268658 2.4432402985074617
N 3.00114776119403 -2.025349253731343 -2.490159701492538
N 1.7831477611940298 3.586450746268657 1.862540298507462
C -3.55075223880597 -3.8435492537313434 0.6444402985074619
H -2.62515223880597 -2.2736492537313433 1.7424402985074618
H -4.67195223880597 -1.3478492537313436 1.5102402985074619
H -4.83415223880597 -1.6757492537313432 -0.1945597014925382
H -3.7169522388059697 0.17335074626865676 -0.900559701492538
H -3.9132522388059705 -4.043149253731343 -0.34225970149253815
H -4.35435223880597 -3.9354492537313432 1.3449402985074619
H -2.78115223880597 -4.545049253731343 0.8904402985074619
H -5.24235223880597 1.138950746268657 1.5249402985074618
H -5.92805223880597 0.6501507462686567 -0.006059701492538094
H -4.89895223880597 2.059650746268657 0.08004029850746197
O -5.349521819243353 -5.8580242818279595 -6.541246276950676
H -4.951700576254367 -5.599001110422404 -7.386002225258651
H -4.690533896626342 -5.59434110960389 -5.88157359536475
O -4.7071777625221465 2.42628132139495 9.149583889850048
H -4.816999510162396 2.151145341971541 8.226975233120683
H -5.36167414700448 3.131795639550118 9.262923970481749
O -11.376165234454774 1.3834957421680458 -13.055633271664494
H -12.110326260067435 1.7483052147316733 -12.539020269409212
H -10.674464928613297 2.0455869245360927 -12.96500275079842
O -3.6149340463150677 10.141496482100708 -4.182685079028481
H -3.796387367360763 9.787337989763495 -3.299161558409522
H -4.376769115484406 10.71105484204132 -4.367543257926548
O -8.300965781144438 -5.938040084276677 -8.432447241751953
H -8.271712330672777 -5.93826890254192 -7.46388565869298
H -7.775009434101393 -5.163509104005231 -8.682314458298842
O 2.326604666577404 -7.057913668506157 2.790272445306527
H 2.836427249912708 -6.353705906967165 3.2182207120509556
H 1.9420578100960917 -6.628307108495479 2.011476025780775
O -0.08864019080843752 7.752008207539916 0.009434977825180657
H 0.18785616699495591 7.844169182983777 -0.9146989278544535
H -0.8024937247085924 7.0975939291894 -0.023987001907220917
O -8.963915678887666 -6.080567463580218 -12.006712888505733
H -8.640581590755387 -6.7137493451023955 -11.348303343265307
H -9.350234133955329 -5.367783924003396 -11.475996748481267
O -0.21104343774241086 13.086392949814808 -0.5982054113485133
H -1.0512280783319004 13.077879872464653 -0.11552057200555033
H 0.07459017947109015 12.16051238556465 -0.5872253493570275
O 8.74448592898459 -3.3153853061224368 8.417375930715036
H 8.276005914747417 -3.3928146663623395 7.572687510448025
H 8.036204803323123 -3.3148989594224414 9.078662218792003
C 3.682454980686231 1.0364716471856128 3.8503907983856216
O 3.9363410061960864 0.49983180083003576 2.810978551654676
O 3.428568955176375 1.5731114935411898 4.889803045116567
C 4.01654762970247 3.943232051765298 -5.646353833600577
O 4.424856060014981 3.8553234160157928 -4.498603078385669
O 3.8914233798686997 4.9979181150753735 -6.279293557478793
O 3.665280382476372 2.9910984543051278 -6.352541710878115


