%nprocshared=1
%mem=1GB
#p opt=(calcfc,cartesian,maxcycles=5000) iop(1/152=5000) pm6

Title

0 1
C -5.0710522388059704 1.0783507462686561 0.47044029850746183
C -3.8153522388059704 0.1782507462686569 0.19534029850746193
C -4.11845223880597 -1.3219492537313435 0.5608402985074619
C -2.96945223880597 -2.3874492537313436 0.7034402985074619
C -2.52015223880597 0.7359507462686565 0.7384402985074618
C -2.20305223880597 0.7852507462686571 2.097440298507462
C -1.5755522388059702 1.205650746268656 -0.18965970149253808
C -0.9533522388059701 1.2695507462686564 2.508640298507462
H -2.91125223880597 0.4298507462686567 2.840840298507462
C -0.32655223880597006 1.6562507462686575 0.21554029850746192
H -1.7850522388059702 1.178550746268657 -1.2573597014925382
C 0.004447761194029898 1.6956507462686563 1.569740298507462
H -0.7158522388059702 1.2676507462686573 3.5705402985074617
H 0.3943477611940298 1.9193507462686572 -0.5551597014925382
C -1.76045223880597 -2.1592492537313435 -0.1734597014925381
C -0.5287522388059701 -1.936549253731343 0.464840298507462
C -1.8068522388059702 -2.121249253731343 -1.5681597014925381
C 0.6114477611940299 -1.614449253731343 -0.2582597014925381
H -0.4544522388059702 -1.954049253731343 1.5506402985074619
C -0.6479522388059701 -1.8270492537313432 -2.2998597014925384
H -2.74345223880597 -2.290549253731343 -2.092259701492538
C 0.5698477611940298 -1.5506492537313434 -1.6506597014925382
H 1.5072477611940298 -1.351949253731343 0.2991402985074618
H -0.7173522388059701 -1.7640492537313435 -3.3840597014925375
C 1.7791477611940298 -1.082849253731343 -2.4255597014925376
H 1.4739477611940297 -0.9102492537313429 -3.464259701492538
H 2.1252477611940295 -0.1337492537313434 -2.0010597014925384
C 1.3965477611940298 2.0964507462686566 1.997440298507462
H 1.51704776119403 1.8448507462686567 3.057640298507462
H 2.1256477611940294 1.5207507462686571 1.4165402985074618
C 3.94864776119403 -1.4275492537313434 -3.522959701492538
H 4.81734776119403 -2.087049253731343 -3.615159701492538
H 3.4305477611940303 -1.3641492537313429 -4.484459701492538
H 4.26984776119403 -0.441449253731343 -3.176459701492538
C 2.60904776119403 -3.4296492537313434 -2.8992597014925376
H 1.9825477611940296 -3.869549253731343 -2.119359701492538
H 2.06294776119403 -3.373349253731343 -3.845759701492538
H 3.5215477611940305 -4.019849253731343 -3.0234597014925377
C 3.7281477611940304 -2.060049253731343 -1.156659701492538
H 3.9048477611940298 -1.032549253731343 -0.8295597014925382
H 3.12924776119403 -2.623249253731343 -0.4404597014925382
H 4.68244776119403 -2.5769492537313434 -1.3005597014925383
C 3.1110477611940297 3.755250746268656 2.588740298507462
H 3.40124776119403 4.809350746268656 2.534540298507462
H 2.9823477611940303 3.461750746268656 3.634840298507462
H 3.86514776119403 3.1392507462686563 2.091540298507462
C 1.99744776119403 3.9574507462686572 0.40494029850746194
H 2.67914776119403 3.230350746268657 -0.04295970149253803
H 1.03214776119403 3.981150746268657 -0.10175970149253821
H 2.4399477611940297 4.958250746268657 0.368240298507462
C 0.7418477611940297 4.4992507462686575 2.475440298507462
H -0.18475223880597014 4.424250746268656 1.901240298507462
H 0.57844776119403 4.189650746268656 3.511940298507462
H 1.1210477611940297 5.524350746268658 2.4432402985074617
N 3.00114776119403 -2.025349253731343 -2.490159701492538
N 1.7831477611940298 3.586450746268657 1.862540298507462
C -3.55075223880597 -3.8435492537313434 0.6444402985074619
H -2.62515223880597 -2.2736492537313433 1.7424402985074618
H -4.67195223880597 -1.3478492537313436 1.5102402985074619
H -4.83415223880597 -1.6757492537313432 -0.1945597014925382
H -3.7169522388059697 0.17335074626865676 -0.900559701492538
H -3.9132522388059705 -4.043149253731343 -0.34225970149253815
H -4.35435223880597 -3.9354492537313432 1.3449402985074619
H -2.78115223880597 -4.545049253731343 0.8904402985074619
H -5.24235223880597 1.138950746268657 1.5249402985074618
H -5.92805223880597 0.6501507462686567 -0.006059701492538094
H -4.89895223880597 2.059650746268657 0.08004029850746197
O -2.104883239864036 -0.9114584015538476 -5.205337633550769
H -2.550794660621376 -0.6443760021380553 -6.0231379476008895
H -2.4387372640293306 -1.8056039339866916 -5.037984110495461
O 1.6737873768101135 0.4662188053298123 -7.126469018209622
H 1.1375563137545366 0.32432923921804613 -7.921007220527738
H 2.3055453451893224 1.1521198221568214 -7.3898767037562845
O 4.147420685471893 -3.1108450901389864 -9.887947292060291
H 4.406370490947045 -4.01299511690946 -10.128857408789363
H 3.3269224213986 -3.228953594683021 -9.386155578191794
O 2.8176933685594014 -1.5838143777959035 12.869006746855296
H 3.4726509797460645 -1.2008712767944623 12.266219499276135
H 1.9669225981676757 -1.3079459946789098 12.496115776538925
O -1.3887612753683272 -9.158371831782697 -1.0407580724478853
H -1.3824202541404431 -9.137481276851656 -2.0095153862599986
H -0.6907033973354999 -8.535385295750586 -0.7886372301142561
O -0.3404464309105657 -0.24602881102858926 13.542382197526262
H -0.19650390046879462 -0.16695605448271733 14.497366702113775
H 0.17345938960179752 0.48465366739558513 13.166927982384895
O -2.4783024249161976 -5.495181281957202 -4.369138868231212
H -2.698743922788906 -5.102170281429002 -3.511283835967915
H -2.0261031087160646 -4.781835287413194 -4.844128567904953
O 2.9124469492107945 5.302464862249642 -2.8982203633389982
H 2.4402841848639416 5.316029073374754 -3.744297010600281
H 2.2675443516718894 5.651283785757257 -2.2646685165335763
O 5.585685940588625 5.922652415994899 -6.985877573540149
H 6.1856206361690385 6.671193549775272 -7.122742064835857
H 5.230562042366132 6.0670009798691 -6.095926758428035
O -2.9151320903580182 -1.4756808043459753 -13.170005912026642
H -2.5337138281819342 -1.5790888211211302 -12.285249308069822
H -3.0469163275949698 -0.5197070576409379 -13.257807134834797
C -10.955135655150801 0.9718931501653753 -14.941317527117773
O -10.923710178093948 0.9799556219168102 -13.744753407130462
O -10.986561132207655 0.9638306784139403 -16.137881647105083
C -14.151237195102329 -1.730937879112776 14.861535769531276
O -15.016731371542495 -1.0778665041466826 14.299225260694694
O -14.199005153835198 -2.9490139282211576 15.0680313501305
O -13.0936545236688 -1.2748147872585902 15.311112239735063


