%nprocshared=1
%mem=1GB
#p opt=(calcfc,cartesian,maxcycles=5000) iop(1/152=5000) pm6

Title

0 1
C -5.0710522388059704 1.0783507462686561 0.47044029850746183
C -3.8153522388059704 0.1782507462686569 0.19534029850746193
C -4.11845223880597 -1.3219492537313435 0.5608402985074619
C -2.96945223880597 -2.3874492537313436 0.7034402985074619
C -2.52015223880597 0.7359507462686565 0.7384402985074618
C -2.20305223880597 0.7852507462686571 2.097440298507462
C -1.5755522388059702 1.205650746268656 -0.18965970149253808
C -0.9533522388059701 1.2695507462686564 2.508640298507462
H -2.91125223880597 0.4298507462686567 2.840840298507462
C -0.32655223880597006 1.6562507462686575 0.21554029850746192
H -1.7850522388059702 1.178550746268657 -1.2573597014925382
C 0.004447761194029898 1.6956507462686563 1.569740298507462
H -0.7158522388059702 1.2676507462686573 3.5705402985074617
H 0.3943477611940298 1.9193507462686572 -0.5551597014925382
C -1.76045223880597 -2.1592492537313435 -0.1734597014925381
C -0.5287522388059701 -1.936549253731343 0.464840298507462
C -1.8068522388059702 -2.121249253731343 -1.5681597014925381
C 0.6114477611940299 -1.614449253731343 -0.2582597014925381
H -0.4544522388059702 -1.954049253731343 1.5506402985074619
C -0.6479522388059701 -1.8270492537313432 -2.2998597014925384
H -2.74345223880597 -2.290549253731343 -2.092259701492538
C 0.5698477611940298 -1.5506492537313434 -1.6506597014925382
H 1.5072477611940298 -1.351949253731343 0.2991402985074618
H -0.7173522388059701 -1.7640492537313435 -3.3840597014925375
C 1.7791477611940298 -1.082849253731343 -2.4255597014925376
H 1.4739477611940297 -0.9102492537313429 -3.464259701492538
H 2.1252477611940295 -0.1337492537313434 -2.0010597014925384
C 1.3965477611940298 2.0964507462686566 1.997440298507462
H 1.51704776119403 1.8448507462686567 3.057640298507462
H 2.1256477611940294 1.5207507462686571 1.4165402985074618
C 3.94864776119403 -1.4275492537313434 -3.522959701492538
H 4.81734776119403 -2.087049253731343 -3.615159701492538
H 3.4305477611940303 -1.3641492537313429 -4.484459701492538
H 4.26984776119403 -0.441449253731343 -3.176459701492538
C 2.60904776119403 -3.4296492537313434 -2.8992597014925376
H 1.9825477611940296 -3.869549253731343 -2.119359701492538
H 2.06294776119403 -3.373349253731343 -3.845759701492538
H 3.5215477611940305 -4.019849253731343 -3.0234597014925377
C 3.7281477611940304 -2.060049253731343 -1.156659701492538
H 3.9048477611940298 -1.032549253731343 -0.8295597014925382
H 3.12924776119403 -2.623249253731343 -0.4404597014925382
H 4.68244776119403 -2.5769492537313434 -1.3005597014925383
C 3.1110477611940297 3.755250746268656 2.588740298507462
H 3.40124776119403 4.809350746268656 2.534540298507462
H 2.9823477611940303 3.461750746268656 3.634840298507462
H 3.86514776119403 3.1392507462686563 2.091540298507462
C 1.99744776119403 3.9574507462686572 0.40494029850746194
H 2.67914776119403 3.230350746268657 -0.04295970149253803
H 1.03214776119403 3.981150746268657 -0.10175970149253821
H 2.4399477611940297 4.958250746268657 0.368240298507462
C 0.7418477611940297 4.4992507462686575 2.475440298507462
H -0.18475223880597014 4.424250746268656 1.901240298507462
H 0.57844776119403 4.189650746268656 3.511940298507462
H 1.1210477611940297 5.524350746268658 2.4432402985074617
N 3.00114776119403 -2.025349253731343 -2.490159701492538
N 1.7831477611940298 3.586450746268657 1.862540298507462
C -3.55075223880597 -3.8435492537313434 0.6444402985074619
H -2.62515223880597 -2.2736492537313433 1.7424402985074618
H -4.67195223880597 -1.3478492537313436 1.5102402985074619
H -4.83415223880597 -1.6757492537313432 -0.1945597014925382
H -3.7169522388059697 0.17335074626865676 -0.900559701492538
H -3.9132522388059705 -4.043149253731343 -0.34225970149253815
H -4.35435223880597 -3.9354492537313432 1.3449402985074619
H -2.78115223880597 -4.545049253731343 0.8904402985074619
H -5.24235223880597 1.138950746268657 1.5249402985074618
H -5.92805223880597 0.6501507462686567 -0.006059701492538094
H -4.89895223880597 2.059650746268657 0.08004029850746197
O -5.002757576230943 5.262164274124214 9.122425097487008
H -5.476709040649484 5.834471825315363 8.500491473114511
H -4.19812202167194 5.0121609585541025 8.64386276001834
O -5.290713293026 2.5007813085801183 6.75571847417279
H -5.1897294846636 2.6694646190607205 5.806868871699389
H -5.808038402310692 1.6823335889595779 6.794189318347556
O 0.9622996013710234 -13.419723847361759 -0.6370905403873859
H 0.6463761946879252 -13.830415337047917 -1.4559264569843013
H 0.39116379534378387 -13.796348401055212 0.04914541096522396
O 5.0006758987795665 2.336006231171405 -10.907423873120521
H 5.4599993721156945 2.3245487491099657 -11.76056983357937
H 5.708806447551639 2.4820159511889215 -10.262292698973612
O -0.0100641847950243 -6.143144004489564 -0.023909733132835093
H 0.18042013233137688 -5.728088534245813 -0.8785512009131137
H -0.5540284368635384 -5.487930280542344 0.43843192919358587
O -3.4517194316000555 -5.1101342433625385 2.9102214789571637
H -3.6358866081394696 -5.434921794346842 3.8044042649193632
H -2.6354609011276113 -4.597723523333808 3.010815761749989
O 5.53870343026582 0.7361609940934164 6.0745133355098195
H 6.039759536719593 1.491655991881122 6.416766813802066
H 6.050988882590676 0.4446222870894989 5.305402978048161
O -9.73862235817867 0.5106040274747261 -9.971660397495036
H -9.179012883938297 0.7354950799239692 -9.21322212857087
H -9.197690411317037 0.7472689440835671 -10.739999053564748
O -5.859543223459722 -3.5203534200191506 -9.508318944950249
H -6.565830131433732 -3.4471432990491104 -10.167687156734882
H -6.269203122356317 -4.010976594231269 -8.780012956740585
O -3.5586745841832963 4.0299200373165425 5.270716208004503
H -3.4101809356417543 3.687028719881404 4.376656625163171
H -2.7087561874749326 3.8967048278475747 5.716647112072413
C -1.4768011224101745 -0.5457731013997209 5.627968512716649
O -0.826558383923462 -1.4440142406306005 5.177229681309243
O -2.1270438608968867 0.3524680378311581 6.078707344124054
C -11.156914133186158 -7.255995779552313 -11.793969560576214
O -10.79134815385197 -7.553772221084734 -12.920675469064193
O -12.22763755195476 -6.704436151265988 -11.514747783049593
O -10.512699247536858 -7.460132929826776 -10.758612815591336


