%nprocshared=1
%mem=1GB
#p opt=(calcfc,cartesian,maxcycles=5000) iop(1/152=5000) pm6

Title

0 1
C -5.0710522388059704 1.0783507462686561 0.47044029850746183
C -3.8153522388059704 0.1782507462686569 0.19534029850746193
C -4.11845223880597 -1.3219492537313435 0.5608402985074619
C -2.96945223880597 -2.3874492537313436 0.7034402985074619
C -2.52015223880597 0.7359507462686565 0.7384402985074618
C -2.20305223880597 0.7852507462686571 2.097440298507462
C -1.5755522388059702 1.205650746268656 -0.18965970149253808
C -0.9533522388059701 1.2695507462686564 2.508640298507462
H -2.91125223880597 0.4298507462686567 2.840840298507462
C -0.32655223880597006 1.6562507462686575 0.21554029850746192
H -1.7850522388059702 1.178550746268657 -1.2573597014925382
C 0.004447761194029898 1.6956507462686563 1.569740298507462
H -0.7158522388059702 1.2676507462686573 3.5705402985074617
H 0.3943477611940298 1.9193507462686572 -0.5551597014925382
C -1.76045223880597 -2.1592492537313435 -0.1734597014925381
C -0.5287522388059701 -1.936549253731343 0.464840298507462
C -1.8068522388059702 -2.121249253731343 -1.5681597014925381
C 0.6114477611940299 -1.614449253731343 -0.2582597014925381
H -0.4544522388059702 -1.954049253731343 1.5506402985074619
C -0.6479522388059701 -1.8270492537313432 -2.2998597014925384
H -2.74345223880597 -2.290549253731343 -2.092259701492538
C 0.5698477611940298 -1.5506492537313434 -1.6506597014925382
H 1.5072477611940298 -1.351949253731343 0.2991402985074618
H -0.7173522388059701 -1.7640492537313435 -3.3840597014925375
C 1.7791477611940298 -1.082849253731343 -2.4255597014925376
H 1.4739477611940297 -0.9102492537313429 -3.464259701492538
H 2.1252477611940295 -0.1337492537313434 -2.0010597014925384
C 1.3965477611940298 2.0964507462686566 1.997440298507462
H 1.51704776119403 1.8448507462686567 3.057640298507462
H 2.1256477611940294 1.5207507462686571 1.4165402985074618
C 3.94864776119403 -1.4275492537313434 -3.522959701492538
H 4.81734776119403 -2.087049253731343 -3.615159701492538
H 3.4305477611940303 -1.3641492537313429 -4.484459701492538
H 4.26984776119403 -0.441449253731343 -3.176459701492538
C 2.60904776119403 -3.4296492537313434 -2.8992597014925376
H 1.9825477611940296 -3.869549253731343 -2.119359701492538
H 2.06294776119403 -3.373349253731343 -3.845759701492538
H 3.5215477611940305 -4.019849253731343 -3.0234597014925377
C 3.7281477611940304 -2.060049253731343 -1.156659701492538
H 3.9048477611940298 -1.032549253731343 -0.8295597014925382
H 3.12924776119403 -2.623249253731343 -0.4404597014925382
H 4.68244776119403 -2.5769492537313434 -1.3005597014925383
C 3.1110477611940297 3.755250746268656 2.588740298507462
H 3.40124776119403 4.809350746268656 2.534540298507462
H 2.9823477611940303 3.461750746268656 3.634840298507462
H 3.86514776119403 3.1392507462686563 2.091540298507462
C 1.99744776119403 3.9574507462686572 0.40494029850746194
H 2.67914776119403 3.230350746268657 -0.04295970149253803
H 1.03214776119403 3.981150746268657 -0.10175970149253821
H 2.4399477611940297 4.958250746268657 0.368240298507462
C 0.7418477611940297 4.4992507462686575 2.475440298507462
H -0.18475223880597014 4.424250746268656 1.901240298507462
H 0.57844776119403 4.189650746268656 3.511940298507462
H 1.1210477611940297 5.524350746268658 2.4432402985074617
N 3.00114776119403 -2.025349253731343 -2.490159701492538
N 1.7831477611940298 3.586450746268657 1.862540298507462
C -3.55075223880597 -3.8435492537313434 0.6444402985074619
H -2.62515223880597 -2.2736492537313433 1.7424402985074618
H -4.67195223880597 -1.3478492537313436 1.5102402985074619
H -4.83415223880597 -1.6757492537313432 -0.1945597014925382
H -3.7169522388059697 0.17335074626865676 -0.900559701492538
H -3.9132522388059705 -4.043149253731343 -0.34225970149253815
H -4.35435223880597 -3.9354492537313432 1.3449402985074619
H -2.78115223880597 -4.545049253731343 0.8904402985074619
H -5.24235223880597 1.138950746268657 1.5249402985074618
H -5.92805223880597 0.6501507462686567 -0.006059701492538094
H -4.89895223880597 2.059650746268657 0.08004029850746197
O 3.187411468695561 -0.15119521583994724 7.968350860189357
H 2.848109879747131 0.5379821908180094 8.559008367370367
H 3.831192569117055 0.3130589671440296 7.412494860291929
O -5.980940313646262 -2.626953647170076 13.4759195914707
H -5.858029834580161 -3.0128055806742116 12.595590870794801
H -5.98672556295472 -3.3934584246131467 14.06870867820171
O 0.29936376237503287 12.290683516597035 -0.16045336878124783
H 1.0241277071372006 12.853687788925008 -0.4714369223869547
H -0.4835761179220819 12.857382138495922 -0.22987786070047111
O 6.407011282984449 12.09022323927505 -6.971714213849552
H 7.131923501298144 11.54989326712798 -7.3203015828678
H 6.131834885741103 11.62277713277123 -6.168760895022991
O 0.11403653953868288 0.19981941695837532 -6.805688677017101
H -0.6884321380448041 -0.2935932489149764 -6.57863071183384
H 0.23012842594083555 0.8121263725522258 -6.063688130964081
O -3.6366208195631082 1.6792728795376963 -3.412614061608762
H -4.342997177881515 1.0205499174508756 -3.4906131419135464
H -3.200069350205431 1.6578512110652077 -4.277441137399933
O 2.860341668826746 10.050499534531612 4.227033344003893
H 3.0997034388196307 9.215453174924562 4.656417644220948
H 3.709847569999759 10.497359012676592 4.094299493896916
O -1.2153798367319757 -8.637031124895959 1.70895734570728
H -1.1610846048356172 -8.591123268663688 0.7425661964155046
H -1.770594529343274 -7.879829658887794 1.9484245235910667
O 4.944262366284355 4.154201298911364 -5.546231081158717
H 5.373837845111556 4.085954657222696 -4.68033578680229
H 5.578315930365363 4.652543140314471 -6.083440008190957
O -1.9275677763687824 8.314374500035791 -1.6018920086665436
H -1.6276560572238479 8.369519354224098 -2.5216633730153593
H -1.660680640145155 9.162848214611504 -1.217411116433339
C 5.9460534777707075 1.1725580062783356 -14.716582839740822
O 4.90207658955296 1.043386297615262 -14.145404072761297
O 6.990030365988455 1.3017297149414093 -15.287761606720347
C -5.476971704776216 6.455948028222352 -5.872314765358362
O -5.634770406236459 6.65003795753859 -7.06780803918113
O -4.861298015233422 7.203980275940349 -5.104183833499266
O -5.908542636136377 5.481451144613146 -5.245616481141092


