%nprocshared=1
%mem=1GB
#p opt=(calcfc,cartesian,maxcycles=5000) iop(1/152=5000) pm6

Title

0 1
C -5.0710522388059704 1.0783507462686561 0.47044029850746183
C -3.8153522388059704 0.1782507462686569 0.19534029850746193
C -4.11845223880597 -1.3219492537313435 0.5608402985074619
C -2.96945223880597 -2.3874492537313436 0.7034402985074619
C -2.52015223880597 0.7359507462686565 0.7384402985074618
C -2.20305223880597 0.7852507462686571 2.097440298507462
C -1.5755522388059702 1.205650746268656 -0.18965970149253808
C -0.9533522388059701 1.2695507462686564 2.508640298507462
H -2.91125223880597 0.4298507462686567 2.840840298507462
C -0.32655223880597006 1.6562507462686575 0.21554029850746192
H -1.7850522388059702 1.178550746268657 -1.2573597014925382
C 0.004447761194029898 1.6956507462686563 1.569740298507462
H -0.7158522388059702 1.2676507462686573 3.5705402985074617
H 0.3943477611940298 1.9193507462686572 -0.5551597014925382
C -1.76045223880597 -2.1592492537313435 -0.1734597014925381
C -0.5287522388059701 -1.936549253731343 0.464840298507462
C -1.8068522388059702 -2.121249253731343 -1.5681597014925381
C 0.6114477611940299 -1.614449253731343 -0.2582597014925381
H -0.4544522388059702 -1.954049253731343 1.5506402985074619
C -0.6479522388059701 -1.8270492537313432 -2.2998597014925384
H -2.74345223880597 -2.290549253731343 -2.092259701492538
C 0.5698477611940298 -1.5506492537313434 -1.6506597014925382
H 1.5072477611940298 -1.351949253731343 0.2991402985074618
H -0.7173522388059701 -1.7640492537313435 -3.3840597014925375
C 1.7791477611940298 -1.082849253731343 -2.4255597014925376
H 1.4739477611940297 -0.9102492537313429 -3.464259701492538
H 2.1252477611940295 -0.1337492537313434 -2.0010597014925384
C 1.3965477611940298 2.0964507462686566 1.997440298507462
H 1.51704776119403 1.8448507462686567 3.057640298507462
H 2.1256477611940294 1.5207507462686571 1.4165402985074618
C 3.94864776119403 -1.4275492537313434 -3.522959701492538
H 4.81734776119403 -2.087049253731343 -3.615159701492538
H 3.4305477611940303 -1.3641492537313429 -4.484459701492538
H 4.26984776119403 -0.441449253731343 -3.176459701492538
C 2.60904776119403 -3.4296492537313434 -2.8992597014925376
H 1.9825477611940296 -3.869549253731343 -2.119359701492538
H 2.06294776119403 -3.373349253731343 -3.845759701492538
H 3.5215477611940305 -4.019849253731343 -3.0234597014925377
C 3.7281477611940304 -2.060049253731343 -1.156659701492538
H 3.9048477611940298 -1.032549253731343 -0.8295597014925382
H 3.12924776119403 -2.623249253731343 -0.4404597014925382
H 4.68244776119403 -2.5769492537313434 -1.3005597014925383
C 3.1110477611940297 3.755250746268656 2.588740298507462
H 3.40124776119403 4.809350746268656 2.534540298507462
H 2.9823477611940303 3.461750746268656 3.634840298507462
H 3.86514776119403 3.1392507462686563 2.091540298507462
C 1.99744776119403 3.9574507462686572 0.40494029850746194
H 2.67914776119403 3.230350746268657 -0.04295970149253803
H 1.03214776119403 3.981150746268657 -0.10175970149253821
H 2.4399477611940297 4.958250746268657 0.368240298507462
C 0.7418477611940297 4.4992507462686575 2.475440298507462
H -0.18475223880597014 4.424250746268656 1.901240298507462
H 0.57844776119403 4.189650746268656 3.511940298507462
H 1.1210477611940297 5.524350746268658 2.4432402985074617
N 3.00114776119403 -2.025349253731343 -2.490159701492538
N 1.7831477611940298 3.586450746268657 1.862540298507462
C -3.55075223880597 -3.8435492537313434 0.6444402985074619
H -2.62515223880597 -2.2736492537313433 1.7424402985074618
H -4.67195223880597 -1.3478492537313436 1.5102402985074619
H -4.83415223880597 -1.6757492537313432 -0.1945597014925382
H -3.7169522388059697 0.17335074626865676 -0.900559701492538
H -3.9132522388059705 -4.043149253731343 -0.34225970149253815
H -4.35435223880597 -3.9354492537313432 1.3449402985074619
H -2.78115223880597 -4.545049253731343 0.8904402985074619
H -5.24235223880597 1.138950746268657 1.5249402985074618
H -5.92805223880597 0.6501507462686567 -0.006059701492538094
H -4.89895223880597 2.059650746268657 0.08004029850746197
O 3.8647740375539983 -1.1354189224917497 -13.490719173534073
H 4.687022151337226 -0.6232324880855122 -13.51396681191198
H 3.290573822600162 -0.6853757055136052 -14.128462978128779
O 0.8537676368825011 -6.333963255683684 1.5782047989298607
H 0.947482499041996 -5.692204460068314 2.298156554091787
H 1.7531686050587711 -6.428228129367461 1.2301330012602287
O -6.260728081946689 0.8099359492944139 -11.225756653463392
H -6.274316259676709 0.07667326732702118 -10.5924253360947
H -5.521740551804427 1.361958294453078 -10.928888492422555
O -0.9345397200736576 -0.1388424137414274 10.355240838238515
H -0.24187960936676617 -0.8114971300683343 10.43724669497257
H -0.7990566294604478 0.43187667266167384 11.12652937106725
O 4.8859920490171165 -3.810249261931048 4.381874326654107
H 4.188956489410155 -3.151864443224861 4.5220107460483305
H 5.097122307958191 -4.121304077888388 5.274976145893784
O 1.3432570548651617 1.470279179535087 6.383796977259571
H 0.5584776922923887 0.9335400518586778 6.196714594868708
H 1.4549801664487407 2.007793716199041 5.585324677481415
O 5.677350237119939 -0.6297759782524095 -10.678992108172842
H 5.113279900267117 0.07211307243684872 -11.036963856367132
H 5.288888606180596 -1.4446804600656846 -11.031114517440672
O -5.869581801623155 -5.36680753120005 9.813162964243654
H -5.522450704121574 -5.718099997144988 10.64686612569722
H -5.165400742596438 -5.546468132086897 9.172215970415781
O -8.003487712405212 -11.545590768663121 7.799631265997529
H -8.009177746960969 -10.583661657374346 7.682894959468912
H -7.86044047423608 -11.665126065757725 8.750531231661999
O -1.4281631220056552 1.4303194326536082 -3.2865262226997913
H -1.5345254938070978 2.1507087850062705 -3.9258176928303454
H -0.5468491671178071 1.5781265899624342 -2.9118254067569604
C -5.391056463132911 13.650774894819802 5.509790515953677
O -5.914105915137431 13.729132983766384 4.435966723167164
O -4.868007011128392 13.572416805873221 6.58361430874019
C -4.8579313258527685 -4.348939164501874 -5.196914951615301
O -4.156206311421978 -4.668161344270867 -4.249574092860841
O -4.511718354573954 -4.382620821277851 -6.383352302938631
O -6.022885772918283 -3.9428050318217283 -5.115769483877239


