%nprocshared=1
%mem=1GB
#p opt=(calcfc,cartesian,maxcycles=5000) iop(1/152=5000) pm6

Title

0 1
C -5.0710522388059704 1.0783507462686561 0.47044029850746183
C -3.8153522388059704 0.1782507462686569 0.19534029850746193
C -4.11845223880597 -1.3219492537313435 0.5608402985074619
C -2.96945223880597 -2.3874492537313436 0.7034402985074619
C -2.52015223880597 0.7359507462686565 0.7384402985074618
C -2.20305223880597 0.7852507462686571 2.097440298507462
C -1.5755522388059702 1.205650746268656 -0.18965970149253808
C -0.9533522388059701 1.2695507462686564 2.508640298507462
H -2.91125223880597 0.4298507462686567 2.840840298507462
C -0.32655223880597006 1.6562507462686575 0.21554029850746192
H -1.7850522388059702 1.178550746268657 -1.2573597014925382
C 0.004447761194029898 1.6956507462686563 1.569740298507462
H -0.7158522388059702 1.2676507462686573 3.5705402985074617
H 0.3943477611940298 1.9193507462686572 -0.5551597014925382
C -1.76045223880597 -2.1592492537313435 -0.1734597014925381
C -0.5287522388059701 -1.936549253731343 0.464840298507462
C -1.8068522388059702 -2.121249253731343 -1.5681597014925381
C 0.6114477611940299 -1.614449253731343 -0.2582597014925381
H -0.4544522388059702 -1.954049253731343 1.5506402985074619
C -0.6479522388059701 -1.8270492537313432 -2.2998597014925384
H -2.74345223880597 -2.290549253731343 -2.092259701492538
C 0.5698477611940298 -1.5506492537313434 -1.6506597014925382
H 1.5072477611940298 -1.351949253731343 0.2991402985074618
H -0.7173522388059701 -1.7640492537313435 -3.3840597014925375
C 1.7791477611940298 -1.082849253731343 -2.4255597014925376
H 1.4739477611940297 -0.9102492537313429 -3.464259701492538
H 2.1252477611940295 -0.1337492537313434 -2.0010597014925384
C 1.3965477611940298 2.0964507462686566 1.997440298507462
H 1.51704776119403 1.8448507462686567 3.057640298507462
H 2.1256477611940294 1.5207507462686571 1.4165402985074618
C 3.94864776119403 -1.4275492537313434 -3.522959701492538
H 4.81734776119403 -2.087049253731343 -3.615159701492538
H 3.4305477611940303 -1.3641492537313429 -4.484459701492538
H 4.26984776119403 -0.441449253731343 -3.176459701492538
C 2.60904776119403 -3.4296492537313434 -2.8992597014925376
H 1.9825477611940296 -3.869549253731343 -2.119359701492538
H 2.06294776119403 -3.373349253731343 -3.845759701492538
H 3.5215477611940305 -4.019849253731343 -3.0234597014925377
C 3.7281477611940304 -2.060049253731343 -1.156659701492538
H 3.9048477611940298 -1.032549253731343 -0.8295597014925382
H 3.12924776119403 -2.623249253731343 -0.4404597014925382
H 4.68244776119403 -2.5769492537313434 -1.3005597014925383
C 3.1110477611940297 3.755250746268656 2.588740298507462
H 3.40124776119403 4.809350746268656 2.534540298507462
H 2.9823477611940303 3.461750746268656 3.634840298507462
H 3.86514776119403 3.1392507462686563 2.091540298507462
C 1.99744776119403 3.9574507462686572 0.40494029850746194
H 2.67914776119403 3.230350746268657 -0.04295970149253803
H 1.03214776119403 3.981150746268657 -0.10175970149253821
H 2.4399477611940297 4.958250746268657 0.368240298507462
C 0.7418477611940297 4.4992507462686575 2.475440298507462
H -0.18475223880597014 4.424250746268656 1.901240298507462
H 0.57844776119403 4.189650746268656 3.511940298507462
H 1.1210477611940297 5.524350746268658 2.4432402985074617
N 3.00114776119403 -2.025349253731343 -2.490159701492538
N 1.7831477611940298 3.586450746268657 1.862540298507462
C -3.55075223880597 -3.8435492537313434 0.6444402985074619
H -2.62515223880597 -2.2736492537313433 1.7424402985074618
H -4.67195223880597 -1.3478492537313436 1.5102402985074619
H -4.83415223880597 -1.6757492537313432 -0.1945597014925382
H -3.7169522388059697 0.17335074626865676 -0.900559701492538
H -3.9132522388059705 -4.043149253731343 -0.34225970149253815
H -4.35435223880597 -3.9354492537313432 1.3449402985074619
H -2.78115223880597 -4.545049253731343 0.8904402985074619
H -5.24235223880597 1.138950746268657 1.5249402985074618
H -5.92805223880597 0.6501507462686567 -0.006059701492538094
H -4.89895223880597 2.059650746268657 0.08004029850746197
O 0.5456667150189575 0.24650648416711088 6.346791075946786
H 0.535836788544839 0.9994148434714138 6.956708883471061
H -0.39195550982348115 0.07122932273539773 6.176190887019704
O 3.5310412764927044 3.5383567495749304 6.676780296029393
H 3.5584482845816954 3.1728145769440874 5.779788025808553
H 3.9702797690091813 4.3979888728598295 6.592732074105617
O 2.590079843180217 -9.954044061649142 -2.508570515710173
H 1.9635917304629176 -10.206309158757456 -1.8137019509406545
H 2.416278863815581 -9.011214381869713 -2.6493801702048527
O -3.749085766810383 3.514065341012072 10.438764207468642
H -4.370245915192989 3.9500489265041008 11.041296978480158
H -3.8212406231311142 2.575175699699173 10.66732899575562
O 12.416350007053532 4.533553836650134 12.84925612455111
H 12.663780539270572 4.119371079826845 13.68961208042758
H 12.88934006063488 5.379239209892041 12.856911384037856
O -1.0785260544414734 -12.024950198509295 1.7122904088693292
H -1.4292827165449111 -12.720955886830222 1.1365185767040464
H -1.8635382161137857 -11.671159916757453 2.1567567032770336
O 1.7766663980514794 -4.17133612900654 2.778857596833461
H 1.7759775938024458 -4.137003347221012 1.8104629755433717
H 1.8582883456956085 -3.2434421028025087 3.045901559689114
O -2.259830149144177 -5.632615743329256 -4.688099392069793
H -3.0936519239138933 -6.088904531593838 -4.4996606844645815
H -1.6423073403423831 -5.994186087113953 -4.034727819834698
O -6.79209819052421 -8.415853229204824 8.99080192066294
H -7.168925348117992 -8.397693463866553 9.883348206926378
H -7.129160201323703 -7.6066049462861045 8.577923776691982
O 5.772824288347581 -0.39837303098626875 -11.028860102054168
H 5.404559930557077 0.21746053174581864 -10.377632228960692
H 5.003508240127309 -0.6787509284302653 -11.547032850156215
C 5.751599705120624 -13.50282362507139 -5.878274457622627
O 5.39266314399386 -12.508918534539296 -5.316015199449956
O 6.110536266247387 -14.496728715603483 -6.440533715795298
C 6.326222117728752 -1.9677367057620736 -7.643148436234623
O 7.453518931641259 -2.4340255610198254 -7.702747894328843
O 5.519866847431936 -1.931113326656543 -8.57967466131721
O 5.81731682658448 -1.4603187710577181 -6.637071486600187


