%nprocshared=1
%mem=1GB
#p opt=(calcfc,cartesian,maxcycles=5000) iop(1/152=5000) pm6

Title

0 1
C -5.0710522388059704 1.0783507462686561 0.47044029850746183
C -3.8153522388059704 0.1782507462686569 0.19534029850746193
C -4.11845223880597 -1.3219492537313435 0.5608402985074619
C -2.96945223880597 -2.3874492537313436 0.7034402985074619
C -2.52015223880597 0.7359507462686565 0.7384402985074618
C -2.20305223880597 0.7852507462686571 2.097440298507462
C -1.5755522388059702 1.205650746268656 -0.18965970149253808
C -0.9533522388059701 1.2695507462686564 2.508640298507462
H -2.91125223880597 0.4298507462686567 2.840840298507462
C -0.32655223880597006 1.6562507462686575 0.21554029850746192
H -1.7850522388059702 1.178550746268657 -1.2573597014925382
C 0.004447761194029898 1.6956507462686563 1.569740298507462
H -0.7158522388059702 1.2676507462686573 3.5705402985074617
H 0.3943477611940298 1.9193507462686572 -0.5551597014925382
C -1.76045223880597 -2.1592492537313435 -0.1734597014925381
C -0.5287522388059701 -1.936549253731343 0.464840298507462
C -1.8068522388059702 -2.121249253731343 -1.5681597014925381
C 0.6114477611940299 -1.614449253731343 -0.2582597014925381
H -0.4544522388059702 -1.954049253731343 1.5506402985074619
C -0.6479522388059701 -1.8270492537313432 -2.2998597014925384
H -2.74345223880597 -2.290549253731343 -2.092259701492538
C 0.5698477611940298 -1.5506492537313434 -1.6506597014925382
H 1.5072477611940298 -1.351949253731343 0.2991402985074618
H -0.7173522388059701 -1.7640492537313435 -3.3840597014925375
C 1.7791477611940298 -1.082849253731343 -2.4255597014925376
H 1.4739477611940297 -0.9102492537313429 -3.464259701492538
H 2.1252477611940295 -0.1337492537313434 -2.0010597014925384
C 1.3965477611940298 2.0964507462686566 1.997440298507462
H 1.51704776119403 1.8448507462686567 3.057640298507462
H 2.1256477611940294 1.5207507462686571 1.4165402985074618
C 3.94864776119403 -1.4275492537313434 -3.522959701492538
H 4.81734776119403 -2.087049253731343 -3.615159701492538
H 3.4305477611940303 -1.3641492537313429 -4.484459701492538
H 4.26984776119403 -0.441449253731343 -3.176459701492538
C 2.60904776119403 -3.4296492537313434 -2.8992597014925376
H 1.9825477611940296 -3.869549253731343 -2.119359701492538
H 2.06294776119403 -3.373349253731343 -3.845759701492538
H 3.5215477611940305 -4.019849253731343 -3.0234597014925377
C 3.7281477611940304 -2.060049253731343 -1.156659701492538
H 3.9048477611940298 -1.032549253731343 -0.8295597014925382
H 3.12924776119403 -2.623249253731343 -0.4404597014925382
H 4.68244776119403 -2.5769492537313434 -1.3005597014925383
C 3.1110477611940297 3.755250746268656 2.588740298507462
H 3.40124776119403 4.809350746268656 2.534540298507462
H 2.9823477611940303 3.461750746268656 3.634840298507462
H 3.86514776119403 3.1392507462686563 2.091540298507462
C 1.99744776119403 3.9574507462686572 0.40494029850746194
H 2.67914776119403 3.230350746268657 -0.04295970149253803
H 1.03214776119403 3.981150746268657 -0.10175970149253821
H 2.4399477611940297 4.958250746268657 0.368240298507462
C 0.7418477611940297 4.4992507462686575 2.475440298507462
H -0.18475223880597014 4.424250746268656 1.901240298507462
H 0.57844776119403 4.189650746268656 3.511940298507462
H 1.1210477611940297 5.524350746268658 2.4432402985074617
N 3.00114776119403 -2.025349253731343 -2.490159701492538
N 1.7831477611940298 3.586450746268657 1.862540298507462
C -3.55075223880597 -3.8435492537313434 0.6444402985074619
H -2.62515223880597 -2.2736492537313433 1.7424402985074618
H -4.67195223880597 -1.3478492537313436 1.5102402985074619
H -4.83415223880597 -1.6757492537313432 -0.1945597014925382
H -3.7169522388059697 0.17335074626865676 -0.900559701492538
H -3.9132522388059705 -4.043149253731343 -0.34225970149253815
H -4.35435223880597 -3.9354492537313432 1.3449402985074619
H -2.78115223880597 -4.545049253731343 0.8904402985074619
H -5.24235223880597 1.138950746268657 1.5249402985074618
H -5.92805223880597 0.6501507462686567 -0.006059701492538094
H -4.89895223880597 2.059650746268657 0.08004029850746197
O -3.077604626408584 6.174881901235654 -4.634843199799359
H -3.154334216382847 6.184738347856521 -5.6007535358981055
H -2.2983687094103495 6.722506652227638 -4.4563482081024315
O 9.426109787486444 -6.048897964860445 10.53883794275461
H 8.926638826932361 -5.313007717843449 10.923495791769092
H 9.492065298692912 -6.690388720949486 11.26209545200965
O -7.841030011188908 -0.6632948543607327 9.023772406297613
H -8.266450269794353 -0.16552667910780516 8.309481286253797
H -8.576585860172974 -0.9220190876644205 9.599082156281696
O 1.6385743501857808 13.83433428062809 1.574176281891817
H 1.6043463331649679 13.937036342588904 2.537113500104833
H 1.8577362809559774 14.721472400080879 1.2518163132002176
O -0.8521228523174085 1.0800775514598735 11.24206627162892
H -0.9549869597751061 1.0780372130806353 12.205592176478515
H -0.9338659411313285 0.1464188605260267 10.995973889433017
O -2.7150294156748336 1.5652235192748183 4.862658374963906
H -2.650141112285153 2.1946704834444994 4.128796409550258
H -1.9127880701782096 1.7270828782827659 5.381476566411837
O 0.19450015000205917 -0.02439164724728063 -5.717800441155806
H 0.2432878526400461 0.15947766246241313 -6.667947373960511
H -0.7551761032515957 -0.10692868967974944 -5.543833217425012
O -3.3324028048804926 -10.697435133968511 -3.708585437287552
H -2.842768554913056 -10.379633453468122 -2.9351335964920473
H -3.582586956074034 -9.88666189876434 -4.1765775268233964
O -0.8214747890755141 -10.418439892371811 1.2367074713220438
H -1.3120657288978732 -10.592678827228472 0.4194384334622752
H 0.061832511171477145 -10.164370606993943 0.9298215709324203
O -10.845984887197325 3.0128442584348902 -13.730089662590554
H -10.053841322952412 2.5050379316715152 -13.498554211688417
H -11.574520963825279 2.3922516344713554 -13.578228132130723
C 1.5466881009123203 1.022370178994092 12.513350407597654
O 1.6626582196859698 2.1287607885308186 12.071457877698611
O 1.4307179821386709 -0.0840204305426342 12.955242937496697
C -4.7241585146566685 -0.7797771243922015 -4.98281857803663
O -4.49108331401445 -1.2414635408229642 -6.089298176731928
O -4.428514081163485 -1.3177073085031044 -3.90957259035864
O -5.291747241407773 0.2968325495827602 -4.765096205349329


