%nprocshared=1
%mem=1GB
#p opt=(calcfc,cartesian,maxcycles=5000) iop(1/152=5000) pm6

Title

0 1
C -5.0710522388059704 1.0783507462686561 0.47044029850746183
C -3.8153522388059704 0.1782507462686569 0.19534029850746193
C -4.11845223880597 -1.3219492537313435 0.5608402985074619
C -2.96945223880597 -2.3874492537313436 0.7034402985074619
C -2.52015223880597 0.7359507462686565 0.7384402985074618
C -2.20305223880597 0.7852507462686571 2.097440298507462
C -1.5755522388059702 1.205650746268656 -0.18965970149253808
C -0.9533522388059701 1.2695507462686564 2.508640298507462
H -2.91125223880597 0.4298507462686567 2.840840298507462
C -0.32655223880597006 1.6562507462686575 0.21554029850746192
H -1.7850522388059702 1.178550746268657 -1.2573597014925382
C 0.004447761194029898 1.6956507462686563 1.569740298507462
H -0.7158522388059702 1.2676507462686573 3.5705402985074617
H 0.3943477611940298 1.9193507462686572 -0.5551597014925382
C -1.76045223880597 -2.1592492537313435 -0.1734597014925381
C -0.5287522388059701 -1.936549253731343 0.464840298507462
C -1.8068522388059702 -2.121249253731343 -1.5681597014925381
C 0.6114477611940299 -1.614449253731343 -0.2582597014925381
H -0.4544522388059702 -1.954049253731343 1.5506402985074619
C -0.6479522388059701 -1.8270492537313432 -2.2998597014925384
H -2.74345223880597 -2.290549253731343 -2.092259701492538
C 0.5698477611940298 -1.5506492537313434 -1.6506597014925382
H 1.5072477611940298 -1.351949253731343 0.2991402985074618
H -0.7173522388059701 -1.7640492537313435 -3.3840597014925375
C 1.7791477611940298 -1.082849253731343 -2.4255597014925376
H 1.4739477611940297 -0.9102492537313429 -3.464259701492538
H 2.1252477611940295 -0.1337492537313434 -2.0010597014925384
C 1.3965477611940298 2.0964507462686566 1.997440298507462
H 1.51704776119403 1.8448507462686567 3.057640298507462
H 2.1256477611940294 1.5207507462686571 1.4165402985074618
C 3.94864776119403 -1.4275492537313434 -3.522959701492538
H 4.81734776119403 -2.087049253731343 -3.615159701492538
H 3.4305477611940303 -1.3641492537313429 -4.484459701492538
H 4.26984776119403 -0.441449253731343 -3.176459701492538
C 2.60904776119403 -3.4296492537313434 -2.8992597014925376
H 1.9825477611940296 -3.869549253731343 -2.119359701492538
H 2.06294776119403 -3.373349253731343 -3.845759701492538
H 3.5215477611940305 -4.019849253731343 -3.0234597014925377
C 3.7281477611940304 -2.060049253731343 -1.156659701492538
H 3.9048477611940298 -1.032549253731343 -0.8295597014925382
H 3.12924776119403 -2.623249253731343 -0.4404597014925382
H 4.68244776119403 -2.5769492537313434 -1.3005597014925383
C 3.1110477611940297 3.755250746268656 2.588740298507462
H 3.40124776119403 4.809350746268656 2.534540298507462
H 2.9823477611940303 3.461750746268656 3.634840298507462
H 3.86514776119403 3.1392507462686563 2.091540298507462
C 1.99744776119403 3.9574507462686572 0.40494029850746194
H 2.67914776119403 3.230350746268657 -0.04295970149253803
H 1.03214776119403 3.981150746268657 -0.10175970149253821
H 2.4399477611940297 4.958250746268657 0.368240298507462
C 0.7418477611940297 4.4992507462686575 2.475440298507462
H -0.18475223880597014 4.424250746268656 1.901240298507462
H 0.57844776119403 4.189650746268656 3.511940298507462
H 1.1210477611940297 5.524350746268658 2.4432402985074617
N 3.00114776119403 -2.025349253731343 -2.490159701492538
N 1.7831477611940298 3.586450746268657 1.862540298507462
C -3.55075223880597 -3.8435492537313434 0.6444402985074619
H -2.62515223880597 -2.2736492537313433 1.7424402985074618
H -4.67195223880597 -1.3478492537313436 1.5102402985074619
H -4.83415223880597 -1.6757492537313432 -0.1945597014925382
H -3.7169522388059697 0.17335074626865676 -0.900559701492538
H -3.9132522388059705 -4.043149253731343 -0.34225970149253815
H -4.35435223880597 -3.9354492537313432 1.3449402985074619
H -2.78115223880597 -4.545049253731343 0.8904402985074619
H -5.24235223880597 1.138950746268657 1.5249402985074618
H -5.92805223880597 0.6501507462686567 -0.006059701492538094
H -4.89895223880597 2.059650746268657 0.08004029850746197
O -4.096001045246253 -6.543755921594752 -6.9570680887529
H -5.000781030009147 -6.842575641420925 -6.780865616819429
H -4.08807143208151 -6.370975842351012 -7.910507184737317
O 7.498799493339276 -7.266177805359977 11.063241249940344
H 6.649276697821179 -7.418390039283841 10.622662298288061
H 8.147245732727145 -7.316020651670286 10.344913254108763
O -2.1951748884108007 0.8415148545012391 -10.795911575219248
H -3.1371380197484373 0.9338115570599168 -11.003647308297097
H -2.186401755646497 0.34066248310523456 -9.966434704831352
O -4.471962304059746 -5.057920633454733 5.559717097150435
H -4.491912963839257 -4.996875094645259 6.526589772462869
H -4.6505897480160465 -5.993303298026927 5.380514833259986
O 8.437027125104493 3.8632974295476887 9.722245576877501
H 7.856000203977478 4.636652174176383 9.664821602912351
H 7.961155236363938 3.256033932221894 10.308538110193542
O -7.013609583142801 -3.358574439674026 -6.850127913824108
H -7.307125297581945 -2.977161807711021 -7.691163160681415
H -7.157091260830791 -4.31033963255924 -6.962011648477592
O 3.114235116692152 0.05425860125399501 4.6944268984782305
H 3.986587192516152 -0.2811123724704303 4.950347829018681
H 2.938105601845954 0.7605084903318899 5.334076359102957
O 2.040688967931193 -11.48699514955983 2.0406161965185987
H 1.4875047944285358 -11.400041048165631 1.2497978789911715
H 1.9852798763878057 -12.428588502430978 2.2626381204432553
O -0.5190149975809143 -5.441470044569331 -0.38394969956907615
H -0.32998322996516594 -5.0462274280703365 -1.2482515113426573
H -0.11871489971248333 -6.322337773447651 -0.4368062996042234
O 0.31702673288084726 -0.5842090093457786 4.671165307873773
H 0.1665440616636723 -1.2514204272536054 5.357569887095657
H 1.0161067956442544 -0.9681152928592458 4.1208336118707285
C 3.948829616344688 -10.26389321196471 -3.9497966317881836
O 4.358902176228642 -11.154239172873378 -3.262815683854514
O 3.5387570564607347 -9.373547251056042 -4.636777579721853
C -3.0810988369617753 -1.156277464380533 4.668524631245765
O -2.8323533497564903 0.015356646955392739 4.907636927769972
O -2.240445019132625 -2.0576158903128814 4.570945613997843
O -4.211987881582974 -1.6219287424403248 4.487121102071068


