%nprocshared=1
%mem=1GB
#p opt=(calcfc,cartesian,maxcycles=5000) iop(1/152=5000) pm6

Title

0 1
C -5.0710522388059704 1.0783507462686561 0.47044029850746183
C -3.8153522388059704 0.1782507462686569 0.19534029850746193
C -4.11845223880597 -1.3219492537313435 0.5608402985074619
C -2.96945223880597 -2.3874492537313436 0.7034402985074619
C -2.52015223880597 0.7359507462686565 0.7384402985074618
C -2.20305223880597 0.7852507462686571 2.097440298507462
C -1.5755522388059702 1.205650746268656 -0.18965970149253808
C -0.9533522388059701 1.2695507462686564 2.508640298507462
H -2.91125223880597 0.4298507462686567 2.840840298507462
C -0.32655223880597006 1.6562507462686575 0.21554029850746192
H -1.7850522388059702 1.178550746268657 -1.2573597014925382
C 0.004447761194029898 1.6956507462686563 1.569740298507462
H -0.7158522388059702 1.2676507462686573 3.5705402985074617
H 0.3943477611940298 1.9193507462686572 -0.5551597014925382
C -1.76045223880597 -2.1592492537313435 -0.1734597014925381
C -0.5287522388059701 -1.936549253731343 0.464840298507462
C -1.8068522388059702 -2.121249253731343 -1.5681597014925381
C 0.6114477611940299 -1.614449253731343 -0.2582597014925381
H -0.4544522388059702 -1.954049253731343 1.5506402985074619
C -0.6479522388059701 -1.8270492537313432 -2.2998597014925384
H -2.74345223880597 -2.290549253731343 -2.092259701492538
C 0.5698477611940298 -1.5506492537313434 -1.6506597014925382
H 1.5072477611940298 -1.351949253731343 0.2991402985074618
H -0.7173522388059701 -1.7640492537313435 -3.3840597014925375
C 1.7791477611940298 -1.082849253731343 -2.4255597014925376
H 1.4739477611940297 -0.9102492537313429 -3.464259701492538
H 2.1252477611940295 -0.1337492537313434 -2.0010597014925384
C 1.3965477611940298 2.0964507462686566 1.997440298507462
H 1.51704776119403 1.8448507462686567 3.057640298507462
H 2.1256477611940294 1.5207507462686571 1.4165402985074618
C 3.94864776119403 -1.4275492537313434 -3.522959701492538
H 4.81734776119403 -2.087049253731343 -3.615159701492538
H 3.4305477611940303 -1.3641492537313429 -4.484459701492538
H 4.26984776119403 -0.441449253731343 -3.176459701492538
C 2.60904776119403 -3.4296492537313434 -2.8992597014925376
H 1.9825477611940296 -3.869549253731343 -2.119359701492538
H 2.06294776119403 -3.373349253731343 -3.845759701492538
H 3.5215477611940305 -4.019849253731343 -3.0234597014925377
C 3.7281477611940304 -2.060049253731343 -1.156659701492538
H 3.9048477611940298 -1.032549253731343 -0.8295597014925382
H 3.12924776119403 -2.623249253731343 -0.4404597014925382
H 4.68244776119403 -2.5769492537313434 -1.3005597014925383
C 3.1110477611940297 3.755250746268656 2.588740298507462
H 3.40124776119403 4.809350746268656 2.534540298507462
H 2.9823477611940303 3.461750746268656 3.634840298507462
H 3.86514776119403 3.1392507462686563 2.091540298507462
C 1.99744776119403 3.9574507462686572 0.40494029850746194
H 2.67914776119403 3.230350746268657 -0.04295970149253803
H 1.03214776119403 3.981150746268657 -0.10175970149253821
H 2.4399477611940297 4.958250746268657 0.368240298507462
C 0.7418477611940297 4.4992507462686575 2.475440298507462
H -0.18475223880597014 4.424250746268656 1.901240298507462
H 0.57844776119403 4.189650746268656 3.511940298507462
H 1.1210477611940297 5.524350746268658 2.4432402985074617
N 3.00114776119403 -2.025349253731343 -2.490159701492538
N 1.7831477611940298 3.586450746268657 1.862540298507462
C -3.55075223880597 -3.8435492537313434 0.6444402985074619
H -2.62515223880597 -2.2736492537313433 1.7424402985074618
H -4.67195223880597 -1.3478492537313436 1.5102402985074619
H -4.83415223880597 -1.6757492537313432 -0.1945597014925382
H -3.7169522388059697 0.17335074626865676 -0.900559701492538
H -3.9132522388059705 -4.043149253731343 -0.34225970149253815
H -4.35435223880597 -3.9354492537313432 1.3449402985074619
H -2.78115223880597 -4.545049253731343 0.8904402985074619
H -5.24235223880597 1.138950746268657 1.5249402985074618
H -5.92805223880597 0.6501507462686567 -0.006059701492538094
H -4.89895223880597 2.059650746268657 0.08004029850746197
O 4.889182141806233 -5.40028446871033 5.913552131729211
H 4.620100391052428 -5.31747425133968 4.98634943748685
H 4.058405813548391 -5.56419566815639 6.384620869179035
O -1.2555009563481516 -1.6149051410391122 4.5229545132191475
H -1.1294537257579023 -0.7986495434792302 4.016193966202423
H -1.0852570631356702 -2.3187772880583832 3.879104405061715
O 1.1235507319132703 0.5928205699717382 -10.57152518555952
H 0.1655532316356273 0.45767404243795595 -10.625779793265679
H 1.2139161191180574 1.5086128647366248 -10.268011571458619
O 1.7105254041403954 4.605880109455459 -2.2557407362401687
H 1.802496251975567 5.516326722816099 -1.9369999571286443
H 2.019010705500095 4.646875598004754 -3.1734106840229317
O 8.236282135045451 -3.858116923053786 13.983380595186873
H 8.577375784905206 -3.753845874488877 13.082408882336503
H 8.44876160206302 -3.0159611103581416 14.413017660090341
O -2.303895380444543 2.7580745922900975 3.8048920758383113
H -3.046268937844677 3.13346825123165 3.3079731096078557
H -1.5824891903739764 3.3885490715529043 3.6598507568076255
O 5.375731631169157 -0.8434055711863724 15.146135812323275
H 5.291516374327435 -1.74411589975918 14.798866390379231
H 5.421466293156695 -0.2897691319463739 14.352185575760213
O -6.811829668507792 4.11444669792022 10.004890783045592
H -6.38890262621766 4.43242039061614 9.1931070652038
H -6.61188867504248 4.802010543711785 10.657762517303107
O -1.8310262576581362 -0.4122384284089048 -12.92937915855354
H -1.6119797330679955 -1.3493859114015443 -13.042253301232641
H -2.17030569916016 -0.1450477358141573 -13.796823991764743
O 4.748373831920329 -1.7753779886399306 6.553937943847789
H 5.060734936007963 -1.6891821226057897 7.467156521315298
H 5.1758853464942245 -1.03991973189184 6.089936864336336
C -2.1149300293322892 1.0716661679770778 -7.136147963263537
O -2.422024524848502 1.099453731782636 -8.292754672314368
O -1.8078355338160765 1.0438786041715196 -5.979541254212705
C 7.947451499566264 -0.9274245079020288 8.898915332168151
O 8.588048155420122 -1.2200248974221977 7.901019327986605
O 7.706739586195829 0.22426190245443123 9.27879380097337
O 7.4407515968947635 -1.7377360148915058 9.68332520887365


