%nprocshared=1
%mem=1GB
#p opt=(calcfc,cartesian,maxcycles=5000) iop(1/152=5000) pm6

Title

0 1
C -5.0710522388059704 1.0783507462686561 0.47044029850746183
C -3.8153522388059704 0.1782507462686569 0.19534029850746193
C -4.11845223880597 -1.3219492537313435 0.5608402985074619
C -2.96945223880597 -2.3874492537313436 0.7034402985074619
C -2.52015223880597 0.7359507462686565 0.7384402985074618
C -2.20305223880597 0.7852507462686571 2.097440298507462
C -1.5755522388059702 1.205650746268656 -0.18965970149253808
C -0.9533522388059701 1.2695507462686564 2.508640298507462
H -2.91125223880597 0.4298507462686567 2.840840298507462
C -0.32655223880597006 1.6562507462686575 0.21554029850746192
H -1.7850522388059702 1.178550746268657 -1.2573597014925382
C 0.004447761194029898 1.6956507462686563 1.569740298507462
H -0.7158522388059702 1.2676507462686573 3.5705402985074617
H 0.3943477611940298 1.9193507462686572 -0.5551597014925382
C -1.76045223880597 -2.1592492537313435 -0.1734597014925381
C -0.5287522388059701 -1.936549253731343 0.464840298507462
C -1.8068522388059702 -2.121249253731343 -1.5681597014925381
C 0.6114477611940299 -1.614449253731343 -0.2582597014925381
H -0.4544522388059702 -1.954049253731343 1.5506402985074619
C -0.6479522388059701 -1.8270492537313432 -2.2998597014925384
H -2.74345223880597 -2.290549253731343 -2.092259701492538
C 0.5698477611940298 -1.5506492537313434 -1.6506597014925382
H 1.5072477611940298 -1.351949253731343 0.2991402985074618
H -0.7173522388059701 -1.7640492537313435 -3.3840597014925375
C 1.7791477611940298 -1.082849253731343 -2.4255597014925376
H 1.4739477611940297 -0.9102492537313429 -3.464259701492538
H 2.1252477611940295 -0.1337492537313434 -2.0010597014925384
C 1.3965477611940298 2.0964507462686566 1.997440298507462
H 1.51704776119403 1.8448507462686567 3.057640298507462
H 2.1256477611940294 1.5207507462686571 1.4165402985074618
C 3.94864776119403 -1.4275492537313434 -3.522959701492538
H 4.81734776119403 -2.087049253731343 -3.615159701492538
H 3.4305477611940303 -1.3641492537313429 -4.484459701492538
H 4.26984776119403 -0.441449253731343 -3.176459701492538
C 2.60904776119403 -3.4296492537313434 -2.8992597014925376
H 1.9825477611940296 -3.869549253731343 -2.119359701492538
H 2.06294776119403 -3.373349253731343 -3.845759701492538
H 3.5215477611940305 -4.019849253731343 -3.0234597014925377
C 3.7281477611940304 -2.060049253731343 -1.156659701492538
H 3.9048477611940298 -1.032549253731343 -0.8295597014925382
H 3.12924776119403 -2.623249253731343 -0.4404597014925382
H 4.68244776119403 -2.5769492537313434 -1.3005597014925383
C 3.1110477611940297 3.755250746268656 2.588740298507462
H 3.40124776119403 4.809350746268656 2.534540298507462
H 2.9823477611940303 3.461750746268656 3.634840298507462
H 3.86514776119403 3.1392507462686563 2.091540298507462
C 1.99744776119403 3.9574507462686572 0.40494029850746194
H 2.67914776119403 3.230350746268657 -0.04295970149253803
H 1.03214776119403 3.981150746268657 -0.10175970149253821
H 2.4399477611940297 4.958250746268657 0.368240298507462
C 0.7418477611940297 4.4992507462686575 2.475440298507462
H -0.18475223880597014 4.424250746268656 1.901240298507462
H 0.57844776119403 4.189650746268656 3.511940298507462
H 1.1210477611940297 5.524350746268658 2.4432402985074617
N 3.00114776119403 -2.025349253731343 -2.490159701492538
N 1.7831477611940298 3.586450746268657 1.862540298507462
C -3.55075223880597 -3.8435492537313434 0.6444402985074619
H -2.62515223880597 -2.2736492537313433 1.7424402985074618
H -4.67195223880597 -1.3478492537313436 1.5102402985074619
H -4.83415223880597 -1.6757492537313432 -0.1945597014925382
H -3.7169522388059697 0.17335074626865676 -0.900559701492538
H -3.9132522388059705 -4.043149253731343 -0.34225970149253815
H -4.35435223880597 -3.9354492537313432 1.3449402985074619
H -2.78115223880597 -4.545049253731343 0.8904402985074619
H -5.24235223880597 1.138950746268657 1.5249402985074618
H -5.92805223880597 0.6501507462686567 -0.006059701492538094
H -4.89895223880597 2.059650746268657 0.08004029850746197
O -6.206179310854877 2.7823253562543346 -7.797040261989152
H -6.178485157088811 2.8162183018957783 -8.765054548548461
H -5.843019302674932 3.637691936709714 -7.522404565476822
O 3.3986978448241407 5.627960505025312 -3.4841825905625097
H 3.6118951869448934 4.696682215320792 -3.322210378940664
H 3.036911304922187 5.632332272357253 -4.383100457498175
O -5.182942318251516 -2.780967976959711 -9.296154955594648
H -5.423624148763464 -2.851031952409142 -8.360136444716984
H -5.1342475738335365 -1.8262294744916527 -9.454474752433567
O -6.0894664603467765 -3.212324398753092 -6.280302555442691
H -6.059799890690809 -3.196323267110021 -5.3118856951335625
H -5.6012817413267495 -4.015440773134804 -6.516187513876478
O -6.4696705191465025 0.2026805588950638 12.009061629099255
H -5.959934670029879 -0.59900404582437 11.818172877253573
H -5.79314588984062 0.8797794907650485 12.160102705310543
O -1.8410450251270252 2.5609836870905416 9.428404262324424
H -2.0590906365751316 1.6340958774024255 9.248675420788656
H -2.3616146132550204 3.054466390184118 8.77691054020294
O -4.274450696462987 5.519404294975702 -6.721919677174274
H -4.206355923741288 4.746613845930185 -6.1412946857279795
H -3.405275593280048 5.942022036141327 -6.65198521386046
O 0.9499939960746487 -2.030218628518133 -7.168600930698371
H 1.841973114615263 -1.786502883662707 -6.878871324518619
H 1.0930711571966276 -2.475742733860594 -8.017128562437064
O -0.1617554382190956 -0.21061944931040766 10.426725668425116
H -0.04199722030416822 -0.576850623051459 11.31582636773993
H -0.6543461676482588 0.6103487553278765 10.576149644257097
O -2.460240734851798 -0.6982684253333484 6.211679005967803
H -2.721906968688567 -0.5430029052161731 7.131673982710843
H -2.085270156881873 -1.5917112226988563 6.222586700160236
C 1.6709715283252857 0.5023479169185389 -10.534254283557232
O 2.0157609655708373 1.2499972715376853 -11.403138017897719
O 1.3261820910797342 -0.24530143770060708 -9.665370549216744
C -3.77902598314939 6.492373972148217 3.974117860411852
O -4.1130537549183614 6.864891063937898 2.859922203172238
O -2.901512835268753 7.0186961043038405 4.668082666868039
O -4.266825042656943 5.531410689874839 4.580129437913409


