%nprocshared=1
%mem=1GB
#p opt=(calcfc,cartesian,maxcycles=5000) iop(1/152=5000) pm6

Title

0 1
C -5.0710522388059704 1.0783507462686561 0.47044029850746183
C -3.8153522388059704 0.1782507462686569 0.19534029850746193
C -4.11845223880597 -1.3219492537313435 0.5608402985074619
C -2.96945223880597 -2.3874492537313436 0.7034402985074619
C -2.52015223880597 0.7359507462686565 0.7384402985074618
C -2.20305223880597 0.7852507462686571 2.097440298507462
C -1.5755522388059702 1.205650746268656 -0.18965970149253808
C -0.9533522388059701 1.2695507462686564 2.508640298507462
H -2.91125223880597 0.4298507462686567 2.840840298507462
C -0.32655223880597006 1.6562507462686575 0.21554029850746192
H -1.7850522388059702 1.178550746268657 -1.2573597014925382
C 0.004447761194029898 1.6956507462686563 1.569740298507462
H -0.7158522388059702 1.2676507462686573 3.5705402985074617
H 0.3943477611940298 1.9193507462686572 -0.5551597014925382
C -1.76045223880597 -2.1592492537313435 -0.1734597014925381
C -0.5287522388059701 -1.936549253731343 0.464840298507462
C -1.8068522388059702 -2.121249253731343 -1.5681597014925381
C 0.6114477611940299 -1.614449253731343 -0.2582597014925381
H -0.4544522388059702 -1.954049253731343 1.5506402985074619
C -0.6479522388059701 -1.8270492537313432 -2.2998597014925384
H -2.74345223880597 -2.290549253731343 -2.092259701492538
C 0.5698477611940298 -1.5506492537313434 -1.6506597014925382
H 1.5072477611940298 -1.351949253731343 0.2991402985074618
H -0.7173522388059701 -1.7640492537313435 -3.3840597014925375
C 1.7791477611940298 -1.082849253731343 -2.4255597014925376
H 1.4739477611940297 -0.9102492537313429 -3.464259701492538
H 2.1252477611940295 -0.1337492537313434 -2.0010597014925384
C 1.3965477611940298 2.0964507462686566 1.997440298507462
H 1.51704776119403 1.8448507462686567 3.057640298507462
H 2.1256477611940294 1.5207507462686571 1.4165402985074618
C 3.94864776119403 -1.4275492537313434 -3.522959701492538
H 4.81734776119403 -2.087049253731343 -3.615159701492538
H 3.4305477611940303 -1.3641492537313429 -4.484459701492538
H 4.26984776119403 -0.441449253731343 -3.176459701492538
C 2.60904776119403 -3.4296492537313434 -2.8992597014925376
H 1.9825477611940296 -3.869549253731343 -2.119359701492538
H 2.06294776119403 -3.373349253731343 -3.845759701492538
H 3.5215477611940305 -4.019849253731343 -3.0234597014925377
C 3.7281477611940304 -2.060049253731343 -1.156659701492538
H 3.9048477611940298 -1.032549253731343 -0.8295597014925382
H 3.12924776119403 -2.623249253731343 -0.4404597014925382
H 4.68244776119403 -2.5769492537313434 -1.3005597014925383
C 3.1110477611940297 3.755250746268656 2.588740298507462
H 3.40124776119403 4.809350746268656 2.534540298507462
H 2.9823477611940303 3.461750746268656 3.634840298507462
H 3.86514776119403 3.1392507462686563 2.091540298507462
C 1.99744776119403 3.9574507462686572 0.40494029850746194
H 2.67914776119403 3.230350746268657 -0.04295970149253803
H 1.03214776119403 3.981150746268657 -0.10175970149253821
H 2.4399477611940297 4.958250746268657 0.368240298507462
C 0.7418477611940297 4.4992507462686575 2.475440298507462
H -0.18475223880597014 4.424250746268656 1.901240298507462
H 0.57844776119403 4.189650746268656 3.511940298507462
H 1.1210477611940297 5.524350746268658 2.4432402985074617
N 3.00114776119403 -2.025349253731343 -2.490159701492538
N 1.7831477611940298 3.586450746268657 1.862540298507462
C -3.55075223880597 -3.8435492537313434 0.6444402985074619
H -2.62515223880597 -2.2736492537313433 1.7424402985074618
H -4.67195223880597 -1.3478492537313436 1.5102402985074619
H -4.83415223880597 -1.6757492537313432 -0.1945597014925382
H -3.7169522388059697 0.17335074626865676 -0.900559701492538
H -3.9132522388059705 -4.043149253731343 -0.34225970149253815
H -4.35435223880597 -3.9354492537313432 1.3449402985074619
H -2.78115223880597 -4.545049253731343 0.8904402985074619
H -5.24235223880597 1.138950746268657 1.5249402985074618
H -5.92805223880597 0.6501507462686567 -0.006059701492538094
H -4.89895223880597 2.059650746268657 0.08004029850746197
O 5.333296123376763 3.672896536296106 -10.42177662786581
H 6.043655794771379 3.66447348413789 -9.76277317844504
H 5.10407728621078 2.737731944841309 -10.530808072309403
O -5.322083018190941 2.2181324833036946 -7.754227289978394
H -5.858481261572183 2.687717509481449 -7.097923865800859
H -5.59396878634773 1.292845322936234 -7.659973673427553
O -8.459916024288 2.7535944084545516 8.197879141736916
H -8.130166267100831 3.575366223370897 8.591482417566908
H -8.109193973659712 2.0598054728548822 8.77633648704646
O 0.8588446459323649 1.1496699207020513 -6.496441918418265
H 0.8266548829387226 1.1110055706167026 -7.464138277867288
H 1.1641766053522318 0.26739429830002537 -6.236973105317458
O 7.884351748134223 1.3079170222241676 -7.63431579067486
H 7.862331895836402 1.2568752435948543 -8.601723264203537
H 6.966370020601744 1.4978955597740105 -7.389000386578607
O -3.7065794183433662 -7.914537127691731 3.4024104924891487
H -4.3610311670037145 -8.565715731433828 3.696734619267613
H -3.0752041504889833 -7.869181235330165 4.136079394971659
O -3.3389614053567818 7.556473798996686 -3.6871948985342815
H -2.656786404768035 8.239902310019543 -3.6063858904174557
H -4.123657709465593 7.960588027405283 -3.2873132347689924
O 1.3871396041204354 0.8714722761079732 9.330039846165056
H 1.3503850571663318 0.8655079930422251 8.361752240385806
H 2.2928633198831316 0.5921956730011891 9.531611356955022
O 7.874914425090087 -2.578999493567187 -9.808412672947645
H 7.928088613660447 -1.6362742231852316 -9.590676761455871
H 7.1514877827203645 -2.906967978036039 -9.253387889172295
O 1.6179285824142742 4.615912076416554 -4.321286535068948
H 2.505699210399023 4.844826920907541 -4.007553108480015
H 1.0266242898996945 5.06695273191327 -3.7000913120971957
C -6.361753890821816 -8.516417654306531 -8.976901035867872
O -5.410372742015593 -7.91587277944587 -8.568198185040105
O -7.313135039628039 -9.116962529167193 -9.38560388669564
C 4.1546046104932115 3.6533573662266914 -8.252442586788346
O 3.859443240979861 2.614868144110616 -8.823577772270514
O 3.644509111005327 4.7577570479552795 -8.473203517435053
O 5.009086358500309 3.7605979368947895 -7.365307429822106


