%nprocshared=1
%mem=1GB
#p opt=(calcfc,cartesian,maxcycles=5000) iop(1/152=5000) pm6

Title

0 1
C -5.0710522388059704 1.0783507462686561 0.47044029850746183
C -3.8153522388059704 0.1782507462686569 0.19534029850746193
C -4.11845223880597 -1.3219492537313435 0.5608402985074619
C -2.96945223880597 -2.3874492537313436 0.7034402985074619
C -2.52015223880597 0.7359507462686565 0.7384402985074618
C -2.20305223880597 0.7852507462686571 2.097440298507462
C -1.5755522388059702 1.205650746268656 -0.18965970149253808
C -0.9533522388059701 1.2695507462686564 2.508640298507462
H -2.91125223880597 0.4298507462686567 2.840840298507462
C -0.32655223880597006 1.6562507462686575 0.21554029850746192
H -1.7850522388059702 1.178550746268657 -1.2573597014925382
C 0.004447761194029898 1.6956507462686563 1.569740298507462
H -0.7158522388059702 1.2676507462686573 3.5705402985074617
H 0.3943477611940298 1.9193507462686572 -0.5551597014925382
C -1.76045223880597 -2.1592492537313435 -0.1734597014925381
C -0.5287522388059701 -1.936549253731343 0.464840298507462
C -1.8068522388059702 -2.121249253731343 -1.5681597014925381
C 0.6114477611940299 -1.614449253731343 -0.2582597014925381
H -0.4544522388059702 -1.954049253731343 1.5506402985074619
C -0.6479522388059701 -1.8270492537313432 -2.2998597014925384
H -2.74345223880597 -2.290549253731343 -2.092259701492538
C 0.5698477611940298 -1.5506492537313434 -1.6506597014925382
H 1.5072477611940298 -1.351949253731343 0.2991402985074618
H -0.7173522388059701 -1.7640492537313435 -3.3840597014925375
C 1.7791477611940298 -1.082849253731343 -2.4255597014925376
H 1.4739477611940297 -0.9102492537313429 -3.464259701492538
H 2.1252477611940295 -0.1337492537313434 -2.0010597014925384
C 1.3965477611940298 2.0964507462686566 1.997440298507462
H 1.51704776119403 1.8448507462686567 3.057640298507462
H 2.1256477611940294 1.5207507462686571 1.4165402985074618
C 3.94864776119403 -1.4275492537313434 -3.522959701492538
H 4.81734776119403 -2.087049253731343 -3.615159701492538
H 3.4305477611940303 -1.3641492537313429 -4.484459701492538
H 4.26984776119403 -0.441449253731343 -3.176459701492538
C 2.60904776119403 -3.4296492537313434 -2.8992597014925376
H 1.9825477611940296 -3.869549253731343 -2.119359701492538
H 2.06294776119403 -3.373349253731343 -3.845759701492538
H 3.5215477611940305 -4.019849253731343 -3.0234597014925377
C 3.7281477611940304 -2.060049253731343 -1.156659701492538
H 3.9048477611940298 -1.032549253731343 -0.8295597014925382
H 3.12924776119403 -2.623249253731343 -0.4404597014925382
H 4.68244776119403 -2.5769492537313434 -1.3005597014925383
C 3.1110477611940297 3.755250746268656 2.588740298507462
H 3.40124776119403 4.809350746268656 2.534540298507462
H 2.9823477611940303 3.461750746268656 3.634840298507462
H 3.86514776119403 3.1392507462686563 2.091540298507462
C 1.99744776119403 3.9574507462686572 0.40494029850746194
H 2.67914776119403 3.230350746268657 -0.04295970149253803
H 1.03214776119403 3.981150746268657 -0.10175970149253821
H 2.4399477611940297 4.958250746268657 0.368240298507462
C 0.7418477611940297 4.4992507462686575 2.475440298507462
H -0.18475223880597014 4.424250746268656 1.901240298507462
H 0.57844776119403 4.189650746268656 3.511940298507462
H 1.1210477611940297 5.524350746268658 2.4432402985074617
N 3.00114776119403 -2.025349253731343 -2.490159701492538
N 1.7831477611940298 3.586450746268657 1.862540298507462
C -3.55075223880597 -3.8435492537313434 0.6444402985074619
H -2.62515223880597 -2.2736492537313433 1.7424402985074618
H -4.67195223880597 -1.3478492537313436 1.5102402985074619
H -4.83415223880597 -1.6757492537313432 -0.1945597014925382
H -3.7169522388059697 0.17335074626865676 -0.900559701492538
H -3.9132522388059705 -4.043149253731343 -0.34225970149253815
H -4.35435223880597 -3.9354492537313432 1.3449402985074619
H -2.78115223880597 -4.545049253731343 0.8904402985074619
H -5.24235223880597 1.138950746268657 1.5249402985074618
H -5.92805223880597 0.6501507462686567 -0.006059701492538094
H -4.89895223880597 2.059650746268657 0.08004029850746197
O 0.5045883456851618 -0.5539696758545378 6.693568012885469
H 0.5886203116402133 0.37251034072024375 6.422384008037612
H -0.378587036314433 -0.602844881968708 7.089262848784507
O -3.524172903593225 -9.813024867003968 4.280066367569678
H -3.968757528694411 -10.085601487438678 3.463357206352522
H -2.6466387544163914 -9.527268863238925 3.9847034253431297
O 6.601569703655732 -0.8328559187460776 6.823088871927133
H 6.486046844394859 -1.6152989188171794 6.2632632048414525
H 7.100490346629152 -1.1622672993443475 7.585668886514016
O -4.46078936310088 0.6748269248904313 7.211174525444218
H -5.102148448214296 1.2569429419232163 6.776701484213383
H -3.696571522919884 0.6825817946359072 6.615462431354865
O 6.987272077760604 1.5216674964236958 -13.802677208083091
H 6.671267755068061 0.9501612787264411 -14.518560765704725
H 7.340634907930492 0.9018293137181735 -13.147011682212895
O -2.9461908869444207 5.131779822771607 4.357847587122143
H -2.9766695468830116 5.160985507246608 3.3897642042554117
H -2.000128288262577 5.171934070398851 4.563554028617898
O -5.047662922487512 -1.0077790102687363 -4.698676240221875
H -4.511219681005299 -1.6149094428430164 -4.1670855674197425
H -4.914219197273873 -1.3130253244812142 -5.608609976359185
O -12.2038256865169 8.269443081269422 12.374008069878567
H -11.777927762680326 8.073313078999853 11.526003743485454
H -11.463463358540956 8.462116560189182 12.96873699816018
O -2.7320671944513286 -1.719541665415848 -7.842492943274686
H -2.4765812024947764 -1.9557643383349739 -8.746867375472391
H -1.8899759981023354 -1.6768033860129148 -7.36498084834389
O 4.468461901772428 10.754994756272518 -5.6504667241865585
H 4.068751921816165 10.93404235981049 -4.786093399464726
H 4.542046393943811 9.789207029593666 -5.678774564237874
C 5.914412146453436 2.6125827042309635 -10.062031957289127
O 5.777648575618251 2.629734000547642 -11.251073510821664
O 6.05117571728862 2.595431407914285 -8.87299040375659
C -11.092614618943061 1.5593690712652852 13.816028271638809
O -10.821013252005958 1.0048322707450863 12.762226993908174
O -10.471282827867812 1.4192707681535384 14.875721970291599
O -12.030845621962314 2.3464743275275355 13.98584077099568


