%nprocshared=1
%mem=1GB
#p opt=(calcfc,cartesian,maxcycles=5000) iop(1/152=5000) pm6

Title

0 1
C -5.0710522388059704 1.0783507462686561 0.47044029850746183
C -3.8153522388059704 0.1782507462686569 0.19534029850746193
C -4.11845223880597 -1.3219492537313435 0.5608402985074619
C -2.96945223880597 -2.3874492537313436 0.7034402985074619
C -2.52015223880597 0.7359507462686565 0.7384402985074618
C -2.20305223880597 0.7852507462686571 2.097440298507462
C -1.5755522388059702 1.205650746268656 -0.18965970149253808
C -0.9533522388059701 1.2695507462686564 2.508640298507462
H -2.91125223880597 0.4298507462686567 2.840840298507462
C -0.32655223880597006 1.6562507462686575 0.21554029850746192
H -1.7850522388059702 1.178550746268657 -1.2573597014925382
C 0.004447761194029898 1.6956507462686563 1.569740298507462
H -0.7158522388059702 1.2676507462686573 3.5705402985074617
H 0.3943477611940298 1.9193507462686572 -0.5551597014925382
C -1.76045223880597 -2.1592492537313435 -0.1734597014925381
C -0.5287522388059701 -1.936549253731343 0.464840298507462
C -1.8068522388059702 -2.121249253731343 -1.5681597014925381
C 0.6114477611940299 -1.614449253731343 -0.2582597014925381
H -0.4544522388059702 -1.954049253731343 1.5506402985074619
C -0.6479522388059701 -1.8270492537313432 -2.2998597014925384
H -2.74345223880597 -2.290549253731343 -2.092259701492538
C 0.5698477611940298 -1.5506492537313434 -1.6506597014925382
H 1.5072477611940298 -1.351949253731343 0.2991402985074618
H -0.7173522388059701 -1.7640492537313435 -3.3840597014925375
C 1.7791477611940298 -1.082849253731343 -2.4255597014925376
H 1.4739477611940297 -0.9102492537313429 -3.464259701492538
H 2.1252477611940295 -0.1337492537313434 -2.0010597014925384
C 1.3965477611940298 2.0964507462686566 1.997440298507462
H 1.51704776119403 1.8448507462686567 3.057640298507462
H 2.1256477611940294 1.5207507462686571 1.4165402985074618
C 3.94864776119403 -1.4275492537313434 -3.522959701492538
H 4.81734776119403 -2.087049253731343 -3.615159701492538
H 3.4305477611940303 -1.3641492537313429 -4.484459701492538
H 4.26984776119403 -0.441449253731343 -3.176459701492538
C 2.60904776119403 -3.4296492537313434 -2.8992597014925376
H 1.9825477611940296 -3.869549253731343 -2.119359701492538
H 2.06294776119403 -3.373349253731343 -3.845759701492538
H 3.5215477611940305 -4.019849253731343 -3.0234597014925377
C 3.7281477611940304 -2.060049253731343 -1.156659701492538
H 3.9048477611940298 -1.032549253731343 -0.8295597014925382
H 3.12924776119403 -2.623249253731343 -0.4404597014925382
H 4.68244776119403 -2.5769492537313434 -1.3005597014925383
C 3.1110477611940297 3.755250746268656 2.588740298507462
H 3.40124776119403 4.809350746268656 2.534540298507462
H 2.9823477611940303 3.461750746268656 3.634840298507462
H 3.86514776119403 3.1392507462686563 2.091540298507462
C 1.99744776119403 3.9574507462686572 0.40494029850746194
H 2.67914776119403 3.230350746268657 -0.04295970149253803
H 1.03214776119403 3.981150746268657 -0.10175970149253821
H 2.4399477611940297 4.958250746268657 0.368240298507462
C 0.7418477611940297 4.4992507462686575 2.475440298507462
H -0.18475223880597014 4.424250746268656 1.901240298507462
H 0.57844776119403 4.189650746268656 3.511940298507462
H 1.1210477611940297 5.524350746268658 2.4432402985074617
N 3.00114776119403 -2.025349253731343 -2.490159701492538
N 1.7831477611940298 3.586450746268657 1.862540298507462
C -3.55075223880597 -3.8435492537313434 0.6444402985074619
H -2.62515223880597 -2.2736492537313433 1.7424402985074618
H -4.67195223880597 -1.3478492537313436 1.5102402985074619
H -4.83415223880597 -1.6757492537313432 -0.1945597014925382
H -3.7169522388059697 0.17335074626865676 -0.900559701492538
H -3.9132522388059705 -4.043149253731343 -0.34225970149253815
H -4.35435223880597 -3.9354492537313432 1.3449402985074619
H -2.78115223880597 -4.545049253731343 0.8904402985074619
H -5.24235223880597 1.138950746268657 1.5249402985074618
H -5.92805223880597 0.6501507462686567 -0.006059701492538094
H -4.89895223880597 2.059650746268657 0.08004029850746197
O -3.8210358591439046 2.2867919211438377 4.149332328621659
H -4.365333320423997 1.738892306656207 4.734578980033141
H -2.917513060001345 1.9765224936823882 4.311632600070406
O 3.7553927795947164 -11.911184487670297 -3.4161529733580998
H 2.8769493419101804 -11.801852183212581 -3.8102987977568135
H 4.321257080393379 -12.145802664737921 -4.166961769504698
O 6.659517289275054 -10.535626368992814 -6.777741153915708
H 6.005583312833724 -10.538124777121476 -7.492815604104257
H 6.391429013387256 -9.791461238105267 -6.218001144087372
O -0.4397689427526194 8.847284946589477 -0.46743330381064746
H 0.20138168755720454 9.109157560496776 0.21029522608806928
H -0.6176915796013817 9.668002243727818 -0.9508881597948636
O 3.5388594843581074 1.4409100738476153 12.427609294781524
H 3.554444184822209 1.371689369047088 11.461207221088403
H 2.81797792738925 0.8502572638889612 12.692978816788292
O -0.08591050665169789 0.24902502266882953 -5.289697335066108
H 0.08579706826543942 -0.6991614423477841 -5.187588113272113
H -0.5283337283536529 0.49701800998928 -4.464032078779554
O 9.567606847259212 10.06271799740196 10.783715732466531
H 9.056128038282683 10.44265718861401 10.053645190772727
H 10.273848748031917 9.567695120488185 10.341972964302785
O -0.5753244920085784 -1.3028166859924024 5.00491607381483
H -0.4251503582970523 -1.5612020697223334 4.083150333543078
H -0.37087994810950686 -0.3557307453088746 5.0187938881058916
O -9.900434425067184 -6.589453066273246 9.743706787902312
H -9.438779620087184 -7.045182271301431 9.023878273863545
H -9.442476766517322 -6.890250640772082 10.542929877190367
O -5.993922811499564 -0.7094203626942566 10.067294520926954
H -5.63400717013042 -0.6327613318591938 9.170884190224955
H -5.756501363421133 -1.6088212163674787 10.338718736324584
C -1.9274028524538915 -5.436765818218553 -2.6730957679213683
O -1.6839387270452097 -5.918728646005875 -1.6048002518911673
O -2.1708669778625733 -4.95480299043123 -3.741391283951569
C 8.575081638171753 7.9176422967833 -10.341877723145119
O 8.628629584770312 8.79888289652997 -11.185870093592392
O 8.078054314511542 8.038346217000077 -9.216255287654661
O 9.009638951346531 6.76875052414547 -10.482789116337518


