%nprocshared=1
%mem=1GB
#p opt=(calcfc,cartesian,maxcycles=5000) iop(1/152=5000) pm6

Title

0 1
C -5.0710522388059704 1.0783507462686561 0.47044029850746183
C -3.8153522388059704 0.1782507462686569 0.19534029850746193
C -4.11845223880597 -1.3219492537313435 0.5608402985074619
C -2.96945223880597 -2.3874492537313436 0.7034402985074619
C -2.52015223880597 0.7359507462686565 0.7384402985074618
C -2.20305223880597 0.7852507462686571 2.097440298507462
C -1.5755522388059702 1.205650746268656 -0.18965970149253808
C -0.9533522388059701 1.2695507462686564 2.508640298507462
H -2.91125223880597 0.4298507462686567 2.840840298507462
C -0.32655223880597006 1.6562507462686575 0.21554029850746192
H -1.7850522388059702 1.178550746268657 -1.2573597014925382
C 0.004447761194029898 1.6956507462686563 1.569740298507462
H -0.7158522388059702 1.2676507462686573 3.5705402985074617
H 0.3943477611940298 1.9193507462686572 -0.5551597014925382
C -1.76045223880597 -2.1592492537313435 -0.1734597014925381
C -0.5287522388059701 -1.936549253731343 0.464840298507462
C -1.8068522388059702 -2.121249253731343 -1.5681597014925381
C 0.6114477611940299 -1.614449253731343 -0.2582597014925381
H -0.4544522388059702 -1.954049253731343 1.5506402985074619
C -0.6479522388059701 -1.8270492537313432 -2.2998597014925384
H -2.74345223880597 -2.290549253731343 -2.092259701492538
C 0.5698477611940298 -1.5506492537313434 -1.6506597014925382
H 1.5072477611940298 -1.351949253731343 0.2991402985074618
H -0.7173522388059701 -1.7640492537313435 -3.3840597014925375
C 1.7791477611940298 -1.082849253731343 -2.4255597014925376
H 1.4739477611940297 -0.9102492537313429 -3.464259701492538
H 2.1252477611940295 -0.1337492537313434 -2.0010597014925384
C 1.3965477611940298 2.0964507462686566 1.997440298507462
H 1.51704776119403 1.8448507462686567 3.057640298507462
H 2.1256477611940294 1.5207507462686571 1.4165402985074618
C 3.94864776119403 -1.4275492537313434 -3.522959701492538
H 4.81734776119403 -2.087049253731343 -3.615159701492538
H 3.4305477611940303 -1.3641492537313429 -4.484459701492538
H 4.26984776119403 -0.441449253731343 -3.176459701492538
C 2.60904776119403 -3.4296492537313434 -2.8992597014925376
H 1.9825477611940296 -3.869549253731343 -2.119359701492538
H 2.06294776119403 -3.373349253731343 -3.845759701492538
H 3.5215477611940305 -4.019849253731343 -3.0234597014925377
C 3.7281477611940304 -2.060049253731343 -1.156659701492538
H 3.9048477611940298 -1.032549253731343 -0.8295597014925382
H 3.12924776119403 -2.623249253731343 -0.4404597014925382
H 4.68244776119403 -2.5769492537313434 -1.3005597014925383
C 3.1110477611940297 3.755250746268656 2.588740298507462
H 3.40124776119403 4.809350746268656 2.534540298507462
H 2.9823477611940303 3.461750746268656 3.634840298507462
H 3.86514776119403 3.1392507462686563 2.091540298507462
C 1.99744776119403 3.9574507462686572 0.40494029850746194
H 2.67914776119403 3.230350746268657 -0.04295970149253803
H 1.03214776119403 3.981150746268657 -0.10175970149253821
H 2.4399477611940297 4.958250746268657 0.368240298507462
C 0.7418477611940297 4.4992507462686575 2.475440298507462
H -0.18475223880597014 4.424250746268656 1.901240298507462
H 0.57844776119403 4.189650746268656 3.511940298507462
H 1.1210477611940297 5.524350746268658 2.4432402985074617
N 3.00114776119403 -2.025349253731343 -2.490159701492538
N 1.7831477611940298 3.586450746268657 1.862540298507462
C -3.55075223880597 -3.8435492537313434 0.6444402985074619
H -2.62515223880597 -2.2736492537313433 1.7424402985074618
H -4.67195223880597 -1.3478492537313436 1.5102402985074619
H -4.83415223880597 -1.6757492537313432 -0.1945597014925382
H -3.7169522388059697 0.17335074626865676 -0.900559701492538
H -3.9132522388059705 -4.043149253731343 -0.34225970149253815
H -4.35435223880597 -3.9354492537313432 1.3449402985074619
H -2.78115223880597 -4.545049253731343 0.8904402985074619
H -5.24235223880597 1.138950746268657 1.5249402985074618
H -5.92805223880597 0.6501507462686567 -0.006059701492538094
H -4.89895223880597 2.059650746268657 0.08004029850746197
O -6.90076546747875 -9.787899605118824 8.840486899648674
H -6.577953560380952 -10.599592067972555 8.421064469058312
H -7.859397088733793 -9.818396674727223 8.702438763930628
O -1.7831593138788255 3.7775853806221464 -3.993627635685908
H -1.8944862857137417 4.067057578954101 -4.911657868649362
H -1.0193237281135001 3.1822628850569488 -4.026918302434509
O 1.2754026578361604 -1.716569785004757 -8.527756709070555
H 1.4008855488028895 -1.8692783116050788 -7.579125322873477
H 2.1497603732233195 -1.4362099223733291 -8.837367557181913
O 11.762960820277826 -0.5688154883029832 -13.350493819842498
H 12.604887634077352 -0.28210700143768797 -12.965883834708478
H 11.326152164572871 -1.045439345494223 -12.628697559560296
O -6.7040890565605 1.9857089159024819 6.396873665465952
H -7.411411460710959 1.6006335688498783 6.935742249240449
H -5.906255481564071 1.8575852245982545 6.931670683627979
O -9.494130851450201 -2.677501218000553 -9.327129227669312
H -9.673199955909636 -3.58515936411916 -9.03893085412666
H -9.100998283586815 -2.7843464672564795 -10.206329330658717
O -4.139861508431749 -3.323775931858368 7.232165409711973
H -3.727980331212459 -3.1536274682705616 8.092613405288208
H -4.435748352492831 -4.244535453075605 7.292288815298957
O 5.600663412683452 -4.286813999648897 6.2956645124371855
H 5.8192875340450465 -3.3551173205044025 6.143637710425197
H 5.836104850048349 -4.434007445235579 7.224030476617191
O 0.6076481679295264 1.035385508901522 7.809242415904247
H 0.7258910876324618 0.35593309846216387 7.128558648808048
H 0.33128555624154915 0.536368455891501 8.592547996100247
O -9.528661040248236 -5.883311171895308 -11.879509523063383
H -8.832496063814537 -5.7172246761763486 -12.532760591510167
H -9.06644719329386 -5.840739758356577 -11.0289168010554
C 8.327895878506542 2.2646295865659996 -8.684623070400482
O 7.93785118806237 2.846319739525693 -9.655354733995546
O 8.717940568950713 1.6829394336063062 -7.713891406805419
C -3.7524013273243666 -7.855781573380824 3.8488240669538905
O -3.2168119443351215 -7.346524908594937 2.876416148022564
O -3.385271455410633 -7.712991733044886 5.020770389421538
O -4.744434467907143 -8.592747873671444 3.8114167866273534


