%nprocshared=1
%mem=1GB
#p opt=(calcfc,cartesian,maxcycles=5000) iop(1/152=5000) pm6

Title

0 1
C -5.0710522388059704 1.0783507462686561 0.47044029850746183
C -3.8153522388059704 0.1782507462686569 0.19534029850746193
C -4.11845223880597 -1.3219492537313435 0.5608402985074619
C -2.96945223880597 -2.3874492537313436 0.7034402985074619
C -2.52015223880597 0.7359507462686565 0.7384402985074618
C -2.20305223880597 0.7852507462686571 2.097440298507462
C -1.5755522388059702 1.205650746268656 -0.18965970149253808
C -0.9533522388059701 1.2695507462686564 2.508640298507462
H -2.91125223880597 0.4298507462686567 2.840840298507462
C -0.32655223880597006 1.6562507462686575 0.21554029850746192
H -1.7850522388059702 1.178550746268657 -1.2573597014925382
C 0.004447761194029898 1.6956507462686563 1.569740298507462
H -0.7158522388059702 1.2676507462686573 3.5705402985074617
H 0.3943477611940298 1.9193507462686572 -0.5551597014925382
C -1.76045223880597 -2.1592492537313435 -0.1734597014925381
C -0.5287522388059701 -1.936549253731343 0.464840298507462
C -1.8068522388059702 -2.121249253731343 -1.5681597014925381
C 0.6114477611940299 -1.614449253731343 -0.2582597014925381
H -0.4544522388059702 -1.954049253731343 1.5506402985074619
C -0.6479522388059701 -1.8270492537313432 -2.2998597014925384
H -2.74345223880597 -2.290549253731343 -2.092259701492538
C 0.5698477611940298 -1.5506492537313434 -1.6506597014925382
H 1.5072477611940298 -1.351949253731343 0.2991402985074618
H -0.7173522388059701 -1.7640492537313435 -3.3840597014925375
C 1.7791477611940298 -1.082849253731343 -2.4255597014925376
H 1.4739477611940297 -0.9102492537313429 -3.464259701492538
H 2.1252477611940295 -0.1337492537313434 -2.0010597014925384
C 1.3965477611940298 2.0964507462686566 1.997440298507462
H 1.51704776119403 1.8448507462686567 3.057640298507462
H 2.1256477611940294 1.5207507462686571 1.4165402985074618
C 3.94864776119403 -1.4275492537313434 -3.522959701492538
H 4.81734776119403 -2.087049253731343 -3.615159701492538
H 3.4305477611940303 -1.3641492537313429 -4.484459701492538
H 4.26984776119403 -0.441449253731343 -3.176459701492538
C 2.60904776119403 -3.4296492537313434 -2.8992597014925376
H 1.9825477611940296 -3.869549253731343 -2.119359701492538
H 2.06294776119403 -3.373349253731343 -3.845759701492538
H 3.5215477611940305 -4.019849253731343 -3.0234597014925377
C 3.7281477611940304 -2.060049253731343 -1.156659701492538
H 3.9048477611940298 -1.032549253731343 -0.8295597014925382
H 3.12924776119403 -2.623249253731343 -0.4404597014925382
H 4.68244776119403 -2.5769492537313434 -1.3005597014925383
C 3.1110477611940297 3.755250746268656 2.588740298507462
H 3.40124776119403 4.809350746268656 2.534540298507462
H 2.9823477611940303 3.461750746268656 3.634840298507462
H 3.86514776119403 3.1392507462686563 2.091540298507462
C 1.99744776119403 3.9574507462686572 0.40494029850746194
H 2.67914776119403 3.230350746268657 -0.04295970149253803
H 1.03214776119403 3.981150746268657 -0.10175970149253821
H 2.4399477611940297 4.958250746268657 0.368240298507462
C 0.7418477611940297 4.4992507462686575 2.475440298507462
H -0.18475223880597014 4.424250746268656 1.901240298507462
H 0.57844776119403 4.189650746268656 3.511940298507462
H 1.1210477611940297 5.524350746268658 2.4432402985074617
N 3.00114776119403 -2.025349253731343 -2.490159701492538
N 1.7831477611940298 3.586450746268657 1.862540298507462
C -3.55075223880597 -3.8435492537313434 0.6444402985074619
H -2.62515223880597 -2.2736492537313433 1.7424402985074618
H -4.67195223880597 -1.3478492537313436 1.5102402985074619
H -4.83415223880597 -1.6757492537313432 -0.1945597014925382
H -3.7169522388059697 0.17335074626865676 -0.900559701492538
H -3.9132522388059705 -4.043149253731343 -0.34225970149253815
H -4.35435223880597 -3.9354492537313432 1.3449402985074619
H -2.78115223880597 -4.545049253731343 0.8904402985074619
H -5.24235223880597 1.138950746268657 1.5249402985074618
H -5.92805223880597 0.6501507462686567 -0.006059701492538094
H -4.89895223880597 2.059650746268657 0.08004029850746197
O 4.210594517951425 1.8478512613868698 6.630936807364725
H 4.390983948272692 1.1450498194595213 5.988677402176128
H 3.3154079223000994 1.6525748191765102 6.946325479298029
O -2.684521149367595 8.166851348874069 3.2004415246347566
H -3.153428687428794 8.898411390862591 2.7715907550013834
H -3.393398469074895 7.577766179731453 3.4994959568052377
O 1.3097104923134748 -2.039647116344094 -5.906819315931237
H 1.6013113310316298 -1.7031336060755815 -6.7674556881382415
H 1.6416370792431991 -2.949802038475964 -5.886702086790199
O -6.609201815874733 1.9222575663252048 -7.9652141151437315
H -6.604839706760515 1.686934426672709 -7.0252293552416525
H -7.539209648145419 1.836821753877314 -8.223570648187794
O -13.147404453865553 -1.6768685010739846 -13.172192169573226
H -13.032257034874382 -1.860703337903625 -12.22778061650566
H -12.543874455762941 -0.9380593126162523 -13.342117061042034
O -3.554503086754267 -3.3506109775794775 -8.481493148993275
H -2.9480871429126556 -3.689975472675093 -7.806171892535886
H -4.093094212167218 -2.6998822024743845 -8.006694659972263
O 1.1419586871123768 1.249879663260663 -6.1403671225470395
H 0.5915791787762187 1.1257467050824341 -6.928174689404309
H 2.048409528656073 1.2266542959506423 -6.482082498961445
O -6.041457319015716 2.8776393378108427 6.356756914015936
H -6.030413945910589 3.018522384196073 5.398113409864534
H -5.6886034391253855 3.7042679606401143 6.718891148334815
O -0.5676509725401598 -4.990047087988625 -0.5914609964900257
H -0.25400838276536186 -5.057490444455774 -1.5058170958560244
H -1.4736558497017151 -4.657625087075638 -0.6787119000296467
O -2.8535950192707364 -2.203179208504686 4.578362405631997
H -3.105814371982067 -2.4475576289051126 5.481485842743708
H -3.384117403071854 -2.791146524807248 4.019969730585177
C 2.5364500766311027 1.7419012292819027 10.716307304398251
O 1.5347156231883146 2.1091106639158204 10.173625470169835
O 3.5381845300738908 1.3746917946479853 11.258989138626667
C 6.267509954945892 1.4793775639826938 -6.858835992388345
O 5.63817025158089 1.5999847516149224 -7.898624885702702
O 5.848863808970959 1.776360581231866 -5.734039141385501
O 7.420443139462178 1.0416721214747264 -6.770476487862583


