%nprocshared=1
%mem=1GB
#p opt=(calcfc,cartesian,maxcycles=5000) iop(1/152=5000) pm6

Title

0 1
C -5.0710522388059704 1.0783507462686561 0.47044029850746183
C -3.8153522388059704 0.1782507462686569 0.19534029850746193
C -4.11845223880597 -1.3219492537313435 0.5608402985074619
C -2.96945223880597 -2.3874492537313436 0.7034402985074619
C -2.52015223880597 0.7359507462686565 0.7384402985074618
C -2.20305223880597 0.7852507462686571 2.097440298507462
C -1.5755522388059702 1.205650746268656 -0.18965970149253808
C -0.9533522388059701 1.2695507462686564 2.508640298507462
H -2.91125223880597 0.4298507462686567 2.840840298507462
C -0.32655223880597006 1.6562507462686575 0.21554029850746192
H -1.7850522388059702 1.178550746268657 -1.2573597014925382
C 0.004447761194029898 1.6956507462686563 1.569740298507462
H -0.7158522388059702 1.2676507462686573 3.5705402985074617
H 0.3943477611940298 1.9193507462686572 -0.5551597014925382
C -1.76045223880597 -2.1592492537313435 -0.1734597014925381
C -0.5287522388059701 -1.936549253731343 0.464840298507462
C -1.8068522388059702 -2.121249253731343 -1.5681597014925381
C 0.6114477611940299 -1.614449253731343 -0.2582597014925381
H -0.4544522388059702 -1.954049253731343 1.5506402985074619
C -0.6479522388059701 -1.8270492537313432 -2.2998597014925384
H -2.74345223880597 -2.290549253731343 -2.092259701492538
C 0.5698477611940298 -1.5506492537313434 -1.6506597014925382
H 1.5072477611940298 -1.351949253731343 0.2991402985074618
H -0.7173522388059701 -1.7640492537313435 -3.3840597014925375
C 1.7791477611940298 -1.082849253731343 -2.4255597014925376
H 1.4739477611940297 -0.9102492537313429 -3.464259701492538
H 2.1252477611940295 -0.1337492537313434 -2.0010597014925384
C 1.3965477611940298 2.0964507462686566 1.997440298507462
H 1.51704776119403 1.8448507462686567 3.057640298507462
H 2.1256477611940294 1.5207507462686571 1.4165402985074618
C 3.94864776119403 -1.4275492537313434 -3.522959701492538
H 4.81734776119403 -2.087049253731343 -3.615159701492538
H 3.4305477611940303 -1.3641492537313429 -4.484459701492538
H 4.26984776119403 -0.441449253731343 -3.176459701492538
C 2.60904776119403 -3.4296492537313434 -2.8992597014925376
H 1.9825477611940296 -3.869549253731343 -2.119359701492538
H 2.06294776119403 -3.373349253731343 -3.845759701492538
H 3.5215477611940305 -4.019849253731343 -3.0234597014925377
C 3.7281477611940304 -2.060049253731343 -1.156659701492538
H 3.9048477611940298 -1.032549253731343 -0.8295597014925382
H 3.12924776119403 -2.623249253731343 -0.4404597014925382
H 4.68244776119403 -2.5769492537313434 -1.3005597014925383
C 3.1110477611940297 3.755250746268656 2.588740298507462
H 3.40124776119403 4.809350746268656 2.534540298507462
H 2.9823477611940303 3.461750746268656 3.634840298507462
H 3.86514776119403 3.1392507462686563 2.091540298507462
C 1.99744776119403 3.9574507462686572 0.40494029850746194
H 2.67914776119403 3.230350746268657 -0.04295970149253803
H 1.03214776119403 3.981150746268657 -0.10175970149253821
H 2.4399477611940297 4.958250746268657 0.368240298507462
C 0.7418477611940297 4.4992507462686575 2.475440298507462
H -0.18475223880597014 4.424250746268656 1.901240298507462
H 0.57844776119403 4.189650746268656 3.511940298507462
H 1.1210477611940297 5.524350746268658 2.4432402985074617
N 3.00114776119403 -2.025349253731343 -2.490159701492538
N 1.7831477611940298 3.586450746268657 1.862540298507462
C -3.55075223880597 -3.8435492537313434 0.6444402985074619
H -2.62515223880597 -2.2736492537313433 1.7424402985074618
H -4.67195223880597 -1.3478492537313436 1.5102402985074619
H -4.83415223880597 -1.6757492537313432 -0.1945597014925382
H -3.7169522388059697 0.17335074626865676 -0.900559701492538
H -3.9132522388059705 -4.043149253731343 -0.34225970149253815
H -4.35435223880597 -3.9354492537313432 1.3449402985074619
H -2.78115223880597 -4.545049253731343 0.8904402985074619
H -5.24235223880597 1.138950746268657 1.5249402985074618
H -5.92805223880597 0.6501507462686567 -0.006059701492538094
H -4.89895223880597 2.059650746268657 0.08004029850746197
O 3.285972793589732 -2.501666962403908 -9.10277194471971
H 3.9885641862445445 -2.5980144049982594 -9.763112661450778
H 3.0352278848026617 -3.413854498745536 -8.89300342095994
O -2.165877467099636 -10.100004951307637 2.7456580440434744
H -1.256216909978486 -9.935498616787097 2.4551022084100187
H -2.669289152490936 -10.154255335680647 1.919464655600508
O 10.279757271785007 -2.9754890055384267 14.23264571585721
H 9.617358310388028 -2.866855229645585 14.93149739938918
H 9.935253480862784 -3.7042273986935146 13.694854458321391
O 4.993295100022935 -2.532747211406344 8.246043143139593
H 5.238894446086993 -1.6275430745120545 8.489464154275389
H 5.828647922127378 -2.933710442502787 7.962536363307362
O -12.939837619081333 0.6045553199766694 -12.877540082891189
H -13.601921973423185 -0.029171253398882935 -12.562893781731594
H -12.448728907306617 0.11375509618558935 -13.553475965830986
O 2.9543629679089283 -3.447306239357345 4.389100814086471
H 3.1299094376923424 -3.703665593611949 3.471260590881613
H 2.339280876565531 -4.124847535812378 4.7078071943280095
O -3.548839660689001 14.717246804259188 3.925975255287447
H -4.120746753979473 14.671014676903072 3.14510892617332
H -3.946185516894536 14.08626804617005 4.544799965279362
O 0.8534292606015299 0.04950536744094193 -8.7397873749122
H 0.9081595152152696 -0.013695523093926406 -9.70517724618987
H -0.09000074283942461 -0.06535440308053553 -8.550819107673615
O 0.4446154960935581 -0.16110049331390452 -12.707130952780476
H 1.0905879738641437 -0.2324667347119 -11.988386370573657
H 0.8247847194523724 -0.6990707863684418 -13.417779438110298
O -5.514887003212846 4.308472606277853 -8.540945613062966
H -4.964788282281333 4.448949377061784 -7.7556908575857175
H -5.8228465120380415 5.197429093515224 -8.773064653692419
C -9.494458244819521 -3.131523044626035 9.496776978825432
O -10.621844198670553 -2.7378934270425446 9.413862007195016
O -8.367072290968489 -3.5251526622095253 9.579691950455848
C -0.9170603696488733 4.689481731423938 -2.405898371500078
O -0.37077888958858163 5.463401822693928 -3.1768716106412214
O -1.1586131358508842 4.921177299190887 -1.215687932494728
O -1.3128773167026333 3.5548127968398235 -2.696593637568846


