%nprocshared=1
%mem=1GB
#p opt=(calcfc,cartesian,maxcycles=5000) iop(1/152=5000) pm6

Title

0 1
C -5.0710522388059704 1.0783507462686561 0.47044029850746183
C -3.8153522388059704 0.1782507462686569 0.19534029850746193
C -4.11845223880597 -1.3219492537313435 0.5608402985074619
C -2.96945223880597 -2.3874492537313436 0.7034402985074619
C -2.52015223880597 0.7359507462686565 0.7384402985074618
C -2.20305223880597 0.7852507462686571 2.097440298507462
C -1.5755522388059702 1.205650746268656 -0.18965970149253808
C -0.9533522388059701 1.2695507462686564 2.508640298507462
H -2.91125223880597 0.4298507462686567 2.840840298507462
C -0.32655223880597006 1.6562507462686575 0.21554029850746192
H -1.7850522388059702 1.178550746268657 -1.2573597014925382
C 0.004447761194029898 1.6956507462686563 1.569740298507462
H -0.7158522388059702 1.2676507462686573 3.5705402985074617
H 0.3943477611940298 1.9193507462686572 -0.5551597014925382
C -1.76045223880597 -2.1592492537313435 -0.1734597014925381
C -0.5287522388059701 -1.936549253731343 0.464840298507462
C -1.8068522388059702 -2.121249253731343 -1.5681597014925381
C 0.6114477611940299 -1.614449253731343 -0.2582597014925381
H -0.4544522388059702 -1.954049253731343 1.5506402985074619
C -0.6479522388059701 -1.8270492537313432 -2.2998597014925384
H -2.74345223880597 -2.290549253731343 -2.092259701492538
C 0.5698477611940298 -1.5506492537313434 -1.6506597014925382
H 1.5072477611940298 -1.351949253731343 0.2991402985074618
H -0.7173522388059701 -1.7640492537313435 -3.3840597014925375
C 1.7791477611940298 -1.082849253731343 -2.4255597014925376
H 1.4739477611940297 -0.9102492537313429 -3.464259701492538
H 2.1252477611940295 -0.1337492537313434 -2.0010597014925384
C 1.3965477611940298 2.0964507462686566 1.997440298507462
H 1.51704776119403 1.8448507462686567 3.057640298507462
H 2.1256477611940294 1.5207507462686571 1.4165402985074618
C 3.94864776119403 -1.4275492537313434 -3.522959701492538
H 4.81734776119403 -2.087049253731343 -3.615159701492538
H 3.4305477611940303 -1.3641492537313429 -4.484459701492538
H 4.26984776119403 -0.441449253731343 -3.176459701492538
C 2.60904776119403 -3.4296492537313434 -2.8992597014925376
H 1.9825477611940296 -3.869549253731343 -2.119359701492538
H 2.06294776119403 -3.373349253731343 -3.845759701492538
H 3.5215477611940305 -4.019849253731343 -3.0234597014925377
C 3.7281477611940304 -2.060049253731343 -1.156659701492538
H 3.9048477611940298 -1.032549253731343 -0.8295597014925382
H 3.12924776119403 -2.623249253731343 -0.4404597014925382
H 4.68244776119403 -2.5769492537313434 -1.3005597014925383
C 3.1110477611940297 3.755250746268656 2.588740298507462
H 3.40124776119403 4.809350746268656 2.534540298507462
H 2.9823477611940303 3.461750746268656 3.634840298507462
H 3.86514776119403 3.1392507462686563 2.091540298507462
C 1.99744776119403 3.9574507462686572 0.40494029850746194
H 2.67914776119403 3.230350746268657 -0.04295970149253803
H 1.03214776119403 3.981150746268657 -0.10175970149253821
H 2.4399477611940297 4.958250746268657 0.368240298507462
C 0.7418477611940297 4.4992507462686575 2.475440298507462
H -0.18475223880597014 4.424250746268656 1.901240298507462
H 0.57844776119403 4.189650746268656 3.511940298507462
H 1.1210477611940297 5.524350746268658 2.4432402985074617
N 3.00114776119403 -2.025349253731343 -2.490159701492538
N 1.7831477611940298 3.586450746268657 1.862540298507462
C -3.55075223880597 -3.8435492537313434 0.6444402985074619
H -2.62515223880597 -2.2736492537313433 1.7424402985074618
H -4.67195223880597 -1.3478492537313436 1.5102402985074619
H -4.83415223880597 -1.6757492537313432 -0.1945597014925382
H -3.7169522388059697 0.17335074626865676 -0.900559701492538
H -3.9132522388059705 -4.043149253731343 -0.34225970149253815
H -4.35435223880597 -3.9354492537313432 1.3449402985074619
H -2.78115223880597 -4.545049253731343 0.8904402985074619
H -5.24235223880597 1.138950746268657 1.5249402985074618
H -5.92805223880597 0.6501507462686567 -0.006059701492538094
H -4.89895223880597 2.059650746268657 0.08004029850746197
O -2.2185378939416505 5.654838149804157 1.670392911177769
H -2.422091174369272 5.206669488609173 2.5050654637694127
H -1.369576945005849 6.090296279239169 1.8395185124065119
O -4.621726255809034 -1.701426861873046 5.0745235008869365
H -5.3816477010061465 -1.1001908715511106 5.073095925622893
H -4.260901954673068 -1.6247248890060682 4.178485234199595
O 2.6216888168508192 -2.691507235626697 3.3626367847796907
H 2.3375844577360407 -2.54790921761541 4.277858986900691
H 3.5869538089843633 -2.616538594459852 3.402701009507302
O -10.079539476403701 9.0898349683497 -11.2597457441873
H -9.738773948257519 9.991217574584548 -11.157983231912258
H -9.813312784921866 8.645139616912855 -10.441008095454144
O 6.396603105711479 -7.8374587111979075 6.774869739675343
H 6.390223975726998 -7.8125103364658655 5.80620868326868
H 6.753876804923859 -6.973295150123112 7.028914593710277
O 0.635028364448391 -0.5564252878375475 5.577529713312597
H 0.22854546673452114 -1.182144017055646 4.959294254387904
H 1.4909414108881935 -0.3500952115924787 5.172804249731616
O -1.4523719427281403 4.506716305762219 -1.0505961082744382
H -1.9433282727364727 4.197825306051716 -1.8268148849235195
H -0.5482520857136379 4.626570952132989 -1.3779553790999524
O -1.3846269077659428 -4.296075283726873 -1.8021638427487978
H -0.7653244307248436 -4.361571225754521 -2.544553282604101
H -0.8110901716962734 -4.241087956009349 -1.0230656779011098
O -4.777794763537706 -2.898760458396366 -7.745878727092169
H -4.399655111082814 -2.7232053328588344 -8.62061191957934
H -4.952575244182385 -2.0165737363428837 -7.385101350697604
O -2.3857968839299 6.098339008710728 -4.264807624854846
H -2.985395618191871 5.378156899167408 -4.018258554961701
H -2.3527025823762777 6.656614595566706 -3.473482735428708
C -12.024248990430062 -3.8482453288940532 -13.33378172581219
O -11.066837147955134 -4.109245439384122 -12.664409061660944
O -12.98166083290499 -3.5872452184039845 -14.003154389963434
C 2.886610138473381 10.91922851443765 -3.9010504910906327
O 2.3843985775852867 11.778188094820287 -4.609391853697129
O 3.821592832000876 11.102504779536469 -3.113111002579302
O 2.5375689122883616 9.733759864803876 -3.8625448089289853


