%nprocshared=1
%mem=1GB
#p opt=(calcfc,cartesian,maxcycles=5000) iop(1/152=5000) pm6

Title

0 1
C -5.0710522388059704 1.0783507462686561 0.47044029850746183
C -3.8153522388059704 0.1782507462686569 0.19534029850746193
C -4.11845223880597 -1.3219492537313435 0.5608402985074619
C -2.96945223880597 -2.3874492537313436 0.7034402985074619
C -2.52015223880597 0.7359507462686565 0.7384402985074618
C -2.20305223880597 0.7852507462686571 2.097440298507462
C -1.5755522388059702 1.205650746268656 -0.18965970149253808
C -0.9533522388059701 1.2695507462686564 2.508640298507462
H -2.91125223880597 0.4298507462686567 2.840840298507462
C -0.32655223880597006 1.6562507462686575 0.21554029850746192
H -1.7850522388059702 1.178550746268657 -1.2573597014925382
C 0.004447761194029898 1.6956507462686563 1.569740298507462
H -0.7158522388059702 1.2676507462686573 3.5705402985074617
H 0.3943477611940298 1.9193507462686572 -0.5551597014925382
C -1.76045223880597 -2.1592492537313435 -0.1734597014925381
C -0.5287522388059701 -1.936549253731343 0.464840298507462
C -1.8068522388059702 -2.121249253731343 -1.5681597014925381
C 0.6114477611940299 -1.614449253731343 -0.2582597014925381
H -0.4544522388059702 -1.954049253731343 1.5506402985074619
C -0.6479522388059701 -1.8270492537313432 -2.2998597014925384
H -2.74345223880597 -2.290549253731343 -2.092259701492538
C 0.5698477611940298 -1.5506492537313434 -1.6506597014925382
H 1.5072477611940298 -1.351949253731343 0.2991402985074618
H -0.7173522388059701 -1.7640492537313435 -3.3840597014925375
C 1.7791477611940298 -1.082849253731343 -2.4255597014925376
H 1.4739477611940297 -0.9102492537313429 -3.464259701492538
H 2.1252477611940295 -0.1337492537313434 -2.0010597014925384
C 1.3965477611940298 2.0964507462686566 1.997440298507462
H 1.51704776119403 1.8448507462686567 3.057640298507462
H 2.1256477611940294 1.5207507462686571 1.4165402985074618
C 3.94864776119403 -1.4275492537313434 -3.522959701492538
H 4.81734776119403 -2.087049253731343 -3.615159701492538
H 3.4305477611940303 -1.3641492537313429 -4.484459701492538
H 4.26984776119403 -0.441449253731343 -3.176459701492538
C 2.60904776119403 -3.4296492537313434 -2.8992597014925376
H 1.9825477611940296 -3.869549253731343 -2.119359701492538
H 2.06294776119403 -3.373349253731343 -3.845759701492538
H 3.5215477611940305 -4.019849253731343 -3.0234597014925377
C 3.7281477611940304 -2.060049253731343 -1.156659701492538
H 3.9048477611940298 -1.032549253731343 -0.8295597014925382
H 3.12924776119403 -2.623249253731343 -0.4404597014925382
H 4.68244776119403 -2.5769492537313434 -1.3005597014925383
C 3.1110477611940297 3.755250746268656 2.588740298507462
H 3.40124776119403 4.809350746268656 2.534540298507462
H 2.9823477611940303 3.461750746268656 3.634840298507462
H 3.86514776119403 3.1392507462686563 2.091540298507462
C 1.99744776119403 3.9574507462686572 0.40494029850746194
H 2.67914776119403 3.230350746268657 -0.04295970149253803
H 1.03214776119403 3.981150746268657 -0.10175970149253821
H 2.4399477611940297 4.958250746268657 0.368240298507462
C 0.7418477611940297 4.4992507462686575 2.475440298507462
H -0.18475223880597014 4.424250746268656 1.901240298507462
H 0.57844776119403 4.189650746268656 3.511940298507462
H 1.1210477611940297 5.524350746268658 2.4432402985074617
N 3.00114776119403 -2.025349253731343 -2.490159701492538
N 1.7831477611940298 3.586450746268657 1.862540298507462
C -3.55075223880597 -3.8435492537313434 0.6444402985074619
H -2.62515223880597 -2.2736492537313433 1.7424402985074618
H -4.67195223880597 -1.3478492537313436 1.5102402985074619
H -4.83415223880597 -1.6757492537313432 -0.1945597014925382
H -3.7169522388059697 0.17335074626865676 -0.900559701492538
H -3.9132522388059705 -4.043149253731343 -0.34225970149253815
H -4.35435223880597 -3.9354492537313432 1.3449402985074619
H -2.78115223880597 -4.545049253731343 0.8904402985074619
H -5.24235223880597 1.138950746268657 1.5249402985074618
H -5.92805223880597 0.6501507462686567 -0.006059701492538094
H -4.89895223880597 2.059650746268657 0.08004029850746197
O 4.012583324888481 -4.123532312989565 5.404597413631559
H 3.9094131031439683 -4.7326771426615 4.658095009932055
H 4.40381422354391 -4.67148826439374 6.101479472202455
O -2.0614491148976657 -0.7645562603788598 5.620342507781304
H -1.135308737935508 -1.020064526255262 5.746623484690841
H -2.235552783452651 -0.9682167535326571 4.689121663714738
O -5.474222855020192 -6.210162287397665 6.18262422442702
H -5.857074675243219 -5.761608270506699 6.951513770839828
H -4.583473613972146 -6.455813072456715 6.474486222076939
O -10.053265250606552 -3.8751902341673667 -10.53629204420778
H -9.644663303582677 -3.8956858676450334 -9.657889098631749
H -10.833073902189252 -4.443104590247 -10.445002968325575
O 8.595219902791602 -0.44456710896340784 -11.713351082773887
H 8.557737431952027 -0.4555048619602302 -12.681567374125743
H 8.482668256224317 -1.3742119536530115 -11.464243608183029
O -3.3450530756563146 1.7116531849723473 12.891099844388208
H -2.838847359961753 1.7868778038008644 13.713939067456884
H -2.6666579942384305 1.698640078147986 12.199310341100684
O 5.568280827192223 -4.915512592133264 -6.961485293942435
H 5.579462449719738 -5.316247219152947 -6.079298189681072
H 6.4506673557558845 -5.103406297900804 -7.315112094174417
O 3.817833529092485 -1.5624397690190073 12.12274600600332
H 4.48538597524347 -0.8601615961184661 12.110644088580235
H 4.334975478725794 -2.3751546100372285 12.227725696506706
O 7.409003184097257 -6.9684353402167725 8.760485151953075
H 7.49193151533074 -6.163228544834541 9.293150399035245
H 8.26100073371014 -7.415033714482355 8.87715567889531
O 2.5985609873832405 -1.3657921979627683 7.124433565472029
H 3.018738967918993 -1.1259146984759085 7.96400286387022
H 3.321106009111242 -1.7431114988461238 6.600486257952488
C -6.521725198383561 1.5885683185550648 -6.801145334401616
O -6.053664197039507 2.689316371039184 -6.755419179159564
O -6.9897861997276145 0.48782026607094564 -6.846871489643667
C 13.50552281946139 -2.2884255658691255 -13.81447008007768
O 12.35233489369856 -2.0036219143637686 -14.098758642218392
O 14.037218741115678 -2.0940433022404745 -12.715312927263398
O 14.319299730713144 -2.8151047944467362 -14.581949404423586


