%nprocshared=1
%mem=1GB
#p opt=(calcfc,cartesian,maxcycles=5000) iop(1/152=5000) pm6

Title

0 1
C -5.0710522388059704 1.0783507462686561 0.47044029850746183
C -3.8153522388059704 0.1782507462686569 0.19534029850746193
C -4.11845223880597 -1.3219492537313435 0.5608402985074619
C -2.96945223880597 -2.3874492537313436 0.7034402985074619
C -2.52015223880597 0.7359507462686565 0.7384402985074618
C -2.20305223880597 0.7852507462686571 2.097440298507462
C -1.5755522388059702 1.205650746268656 -0.18965970149253808
C -0.9533522388059701 1.2695507462686564 2.508640298507462
H -2.91125223880597 0.4298507462686567 2.840840298507462
C -0.32655223880597006 1.6562507462686575 0.21554029850746192
H -1.7850522388059702 1.178550746268657 -1.2573597014925382
C 0.004447761194029898 1.6956507462686563 1.569740298507462
H -0.7158522388059702 1.2676507462686573 3.5705402985074617
H 0.3943477611940298 1.9193507462686572 -0.5551597014925382
C -1.76045223880597 -2.1592492537313435 -0.1734597014925381
C -0.5287522388059701 -1.936549253731343 0.464840298507462
C -1.8068522388059702 -2.121249253731343 -1.5681597014925381
C 0.6114477611940299 -1.614449253731343 -0.2582597014925381
H -0.4544522388059702 -1.954049253731343 1.5506402985074619
C -0.6479522388059701 -1.8270492537313432 -2.2998597014925384
H -2.74345223880597 -2.290549253731343 -2.092259701492538
C 0.5698477611940298 -1.5506492537313434 -1.6506597014925382
H 1.5072477611940298 -1.351949253731343 0.2991402985074618
H -0.7173522388059701 -1.7640492537313435 -3.3840597014925375
C 1.7791477611940298 -1.082849253731343 -2.4255597014925376
H 1.4739477611940297 -0.9102492537313429 -3.464259701492538
H 2.1252477611940295 -0.1337492537313434 -2.0010597014925384
C 1.3965477611940298 2.0964507462686566 1.997440298507462
H 1.51704776119403 1.8448507462686567 3.057640298507462
H 2.1256477611940294 1.5207507462686571 1.4165402985074618
C 3.94864776119403 -1.4275492537313434 -3.522959701492538
H 4.81734776119403 -2.087049253731343 -3.615159701492538
H 3.4305477611940303 -1.3641492537313429 -4.484459701492538
H 4.26984776119403 -0.441449253731343 -3.176459701492538
C 2.60904776119403 -3.4296492537313434 -2.8992597014925376
H 1.9825477611940296 -3.869549253731343 -2.119359701492538
H 2.06294776119403 -3.373349253731343 -3.845759701492538
H 3.5215477611940305 -4.019849253731343 -3.0234597014925377
C 3.7281477611940304 -2.060049253731343 -1.156659701492538
H 3.9048477611940298 -1.032549253731343 -0.8295597014925382
H 3.12924776119403 -2.623249253731343 -0.4404597014925382
H 4.68244776119403 -2.5769492537313434 -1.3005597014925383
C 3.1110477611940297 3.755250746268656 2.588740298507462
H 3.40124776119403 4.809350746268656 2.534540298507462
H 2.9823477611940303 3.461750746268656 3.634840298507462
H 3.86514776119403 3.1392507462686563 2.091540298507462
C 1.99744776119403 3.9574507462686572 0.40494029850746194
H 2.67914776119403 3.230350746268657 -0.04295970149253803
H 1.03214776119403 3.981150746268657 -0.10175970149253821
H 2.4399477611940297 4.958250746268657 0.368240298507462
C 0.7418477611940297 4.4992507462686575 2.475440298507462
H -0.18475223880597014 4.424250746268656 1.901240298507462
H 0.57844776119403 4.189650746268656 3.511940298507462
H 1.1210477611940297 5.524350746268658 2.4432402985074617
N 3.00114776119403 -2.025349253731343 -2.490159701492538
N 1.7831477611940298 3.586450746268657 1.862540298507462
C -3.55075223880597 -3.8435492537313434 0.6444402985074619
H -2.62515223880597 -2.2736492537313433 1.7424402985074618
H -4.67195223880597 -1.3478492537313436 1.5102402985074619
H -4.83415223880597 -1.6757492537313432 -0.1945597014925382
H -3.7169522388059697 0.17335074626865676 -0.900559701492538
H -3.9132522388059705 -4.043149253731343 -0.34225970149253815
H -4.35435223880597 -3.9354492537313432 1.3449402985074619
H -2.78115223880597 -4.545049253731343 0.8904402985074619
H -5.24235223880597 1.138950746268657 1.5249402985074618
H -5.92805223880597 0.6501507462686567 -0.006059701492538094
H -4.89895223880597 2.059650746268657 0.08004029850746197
O 5.9604785167647725 9.287302036800225 8.279684401475048
H 5.8655717713103135 8.98044655191953 9.193905259892682
H 6.422910667337672 8.56066113824912 7.835712043135741
O -4.77991075244082 5.543117737955572 4.4404433922618205
H -4.03893893974962 5.476317863878036 3.819584385304247
H -4.514094769831944 4.980813523038551 5.183489674519008
O -4.007166763806643 -1.9954363420504841 -6.458949341279805
H -4.374069703184967 -1.7133731338904465 -5.6076033854087415
H -4.359371401930781 -2.889901344074346 -6.580794313840418
O 2.6125918075795727 2.477079158793876 -2.981055814755835
H 3.463264917430022 2.4631442404942394 -2.517236415496437
H 2.395188136740119 3.419342342199598 -3.043004837376411
O 6.784712355243016 -8.565826173664883 -6.897198624939572
H 6.749050096337292 -8.107784689536 -7.75036540758336
H 6.559563573113118 -7.878118093072548 -6.252739498156942
O -1.5711154910106275 1.9082130686476728 -3.4723438800784567
H -1.7985011425600326 2.8501391521854833 -3.4785386779424368
H -2.4048807782621666 1.4676173715665228 -3.2494698757891873
O 0.8532698439644489 -15.162705708175924 0.6676718178963272
H 0.20200530121695126 -14.447288593661742 0.6128976951731374
H 1.5048130974525245 -14.837657430737362 1.3070441276411247
O 9.120967713896036 -0.4482556067694816 -13.956199260821563
H 9.675853694012439 -0.6624882881902722 -14.721165445813762
H 9.556427524866143 -0.8994928447812751 -13.217469504847589
O 4.756000835875255 -6.569440901027352 7.247387797438183
H 4.921740228298213 -6.916835055128125 8.136665657499861
H 4.198805551911505 -5.79150949580224 7.400090412324239
O -0.5622644654157287 7.683895250676727 -0.832518622357601
H -0.8383958179154622 7.58733869630434 0.09127554566599139
H 0.30341090810878557 7.249688756941771 -0.8646560269134687
C 1.474718210971132 -0.9936006432637131 4.975960060925416
O 0.2828856756356768 -0.8861879241538799 4.947394823497853
O 2.666550746306587 -1.1010133623735463 5.00452529835298
C -0.3349241155453508 -0.1373079658564966 7.094701585283262
O -0.7957102263491833 0.40676123927429864 6.103015970424085
O 0.29441670509718737 0.43340567481046044 7.992948508979437
O -0.4266522609419563 -1.3428215526533045 7.353489768534342


