%nprocshared=1
%mem=1GB
#p opt=(calcfc,cartesian,maxcycles=5000) iop(1/152=5000) pm6

Title

0 1
C -5.0710522388059704 1.0783507462686561 0.47044029850746183
C -3.8153522388059704 0.1782507462686569 0.19534029850746193
C -4.11845223880597 -1.3219492537313435 0.5608402985074619
C -2.96945223880597 -2.3874492537313436 0.7034402985074619
C -2.52015223880597 0.7359507462686565 0.7384402985074618
C -2.20305223880597 0.7852507462686571 2.097440298507462
C -1.5755522388059702 1.205650746268656 -0.18965970149253808
C -0.9533522388059701 1.2695507462686564 2.508640298507462
H -2.91125223880597 0.4298507462686567 2.840840298507462
C -0.32655223880597006 1.6562507462686575 0.21554029850746192
H -1.7850522388059702 1.178550746268657 -1.2573597014925382
C 0.004447761194029898 1.6956507462686563 1.569740298507462
H -0.7158522388059702 1.2676507462686573 3.5705402985074617
H 0.3943477611940298 1.9193507462686572 -0.5551597014925382
C -1.76045223880597 -2.1592492537313435 -0.1734597014925381
C -0.5287522388059701 -1.936549253731343 0.464840298507462
C -1.8068522388059702 -2.121249253731343 -1.5681597014925381
C 0.6114477611940299 -1.614449253731343 -0.2582597014925381
H -0.4544522388059702 -1.954049253731343 1.5506402985074619
C -0.6479522388059701 -1.8270492537313432 -2.2998597014925384
H -2.74345223880597 -2.290549253731343 -2.092259701492538
C 0.5698477611940298 -1.5506492537313434 -1.6506597014925382
H 1.5072477611940298 -1.351949253731343 0.2991402985074618
H -0.7173522388059701 -1.7640492537313435 -3.3840597014925375
C 1.7791477611940298 -1.082849253731343 -2.4255597014925376
H 1.4739477611940297 -0.9102492537313429 -3.464259701492538
H 2.1252477611940295 -0.1337492537313434 -2.0010597014925384
C 1.3965477611940298 2.0964507462686566 1.997440298507462
H 1.51704776119403 1.8448507462686567 3.057640298507462
H 2.1256477611940294 1.5207507462686571 1.4165402985074618
C 3.94864776119403 -1.4275492537313434 -3.522959701492538
H 4.81734776119403 -2.087049253731343 -3.615159701492538
H 3.4305477611940303 -1.3641492537313429 -4.484459701492538
H 4.26984776119403 -0.441449253731343 -3.176459701492538
C 2.60904776119403 -3.4296492537313434 -2.8992597014925376
H 1.9825477611940296 -3.869549253731343 -2.119359701492538
H 2.06294776119403 -3.373349253731343 -3.845759701492538
H 3.5215477611940305 -4.019849253731343 -3.0234597014925377
C 3.7281477611940304 -2.060049253731343 -1.156659701492538
H 3.9048477611940298 -1.032549253731343 -0.8295597014925382
H 3.12924776119403 -2.623249253731343 -0.4404597014925382
H 4.68244776119403 -2.5769492537313434 -1.3005597014925383
C 3.1110477611940297 3.755250746268656 2.588740298507462
H 3.40124776119403 4.809350746268656 2.534540298507462
H 2.9823477611940303 3.461750746268656 3.634840298507462
H 3.86514776119403 3.1392507462686563 2.091540298507462
C 1.99744776119403 3.9574507462686572 0.40494029850746194
H 2.67914776119403 3.230350746268657 -0.04295970149253803
H 1.03214776119403 3.981150746268657 -0.10175970149253821
H 2.4399477611940297 4.958250746268657 0.368240298507462
C 0.7418477611940297 4.4992507462686575 2.475440298507462
H -0.18475223880597014 4.424250746268656 1.901240298507462
H 0.57844776119403 4.189650746268656 3.511940298507462
H 1.1210477611940297 5.524350746268658 2.4432402985074617
N 3.00114776119403 -2.025349253731343 -2.490159701492538
N 1.7831477611940298 3.586450746268657 1.862540298507462
C -3.55075223880597 -3.8435492537313434 0.6444402985074619
H -2.62515223880597 -2.2736492537313433 1.7424402985074618
H -4.67195223880597 -1.3478492537313436 1.5102402985074619
H -4.83415223880597 -1.6757492537313432 -0.1945597014925382
H -3.7169522388059697 0.17335074626865676 -0.900559701492538
H -3.9132522388059705 -4.043149253731343 -0.34225970149253815
H -4.35435223880597 -3.9354492537313432 1.3449402985074619
H -2.78115223880597 -4.545049253731343 0.8904402985074619
H -5.24235223880597 1.138950746268657 1.5249402985074618
H -5.92805223880597 0.6501507462686567 -0.006059701492538094
H -4.89895223880597 2.059650746268657 0.08004029850746197
O 0.6149919307139519 -4.662249663361198 2.0183325583393668
H 1.4550959387603788 -4.2080722868878695 1.8542730469901805
H -0.053378321481096 -4.047370632086408 1.6804465906234785
O 3.6633863965015543 -1.8823734634468676 12.537134886031549
H 2.8285555910591933 -2.1814873523357483 12.146551009433667
H 3.796381373540101 -2.4780717426542447 13.289742247496932
O 3.3725814111471375 -11.725052518616419 3.578403916414387
H 2.4971872987403776 -11.367840419049706 3.3661493033038044
H 3.9665446308993526 -11.270440419115811 2.9623702510443604
O 9.927856020683224 7.972427412955859 10.936269504864487
H 9.40897976353954 7.158703478993252 11.023379469673234
H 9.35390520696174 8.562391976210078 10.424914225403421
O -9.431422862402783 -1.7261698873903308 10.851323438432393
H -10.164898929178898 -1.475586545042317 11.432862951195148
H -9.211239565536465 -0.905547887711335 10.385425602288112
O -13.20694933709344 -2.0978918806154123 -12.920488810078446
H -12.709058242034766 -1.282216141659591 -12.760036626421906
H -12.544659481437655 -2.798855776730852 -12.825706386928879
O -1.891565952910566 -1.80168896427441 -6.908585620149969
H -1.2414396163977683 -2.520152777763224 -6.897962429501176
H -2.2338937892404562 -1.7823775474166883 -6.002274047922933
O 3.1754599947816713 1.9153088524837703 -11.145444676323036
H 3.1752119800660994 1.6859095394862527 -10.203986631275374
H 2.235227543006304 1.965542523906418 -11.374358326383234
O 9.720128381603333 -3.313003166622402 -13.092090414962945
H 10.04749802422158 -4.001112501757021 -13.690673756606023
H 10.418062735411997 -2.6409128040399388 -13.10409568869799
O 8.089074214924933 -2.0933148691997134 -10.312576942080435
H 8.209507346259972 -1.4972612456613805 -11.067019316051875
H 7.295526240078839 -2.6009277788444876 -10.53967315490581
C -7.395945318389836 -3.830563258739411 -12.431564693685976
O -8.226317542004592 -3.16757673937044 -11.880430315621876
O -6.565573094775079 -4.493549778108382 -12.982699071750075
C -4.7941059091388905 3.669898853005869 6.4063933587101785
O -3.8297969192820878 4.2752926539640095 6.848413738831738
O -4.737253018561154 2.701678951152088 5.6396147501227905
O -5.976065676420944 3.9317900290194694 6.657456109537073


