%nprocshared=1
%mem=1GB
#p opt=(calcfc,cartesian,maxcycles=5000) iop(1/152=5000) pm6

Title

0 1
C -5.0710522388059704 1.0783507462686561 0.47044029850746183
C -3.8153522388059704 0.1782507462686569 0.19534029850746193
C -4.11845223880597 -1.3219492537313435 0.5608402985074619
C -2.96945223880597 -2.3874492537313436 0.7034402985074619
C -2.52015223880597 0.7359507462686565 0.7384402985074618
C -2.20305223880597 0.7852507462686571 2.097440298507462
C -1.5755522388059702 1.205650746268656 -0.18965970149253808
C -0.9533522388059701 1.2695507462686564 2.508640298507462
H -2.91125223880597 0.4298507462686567 2.840840298507462
C -0.32655223880597006 1.6562507462686575 0.21554029850746192
H -1.7850522388059702 1.178550746268657 -1.2573597014925382
C 0.004447761194029898 1.6956507462686563 1.569740298507462
H -0.7158522388059702 1.2676507462686573 3.5705402985074617
H 0.3943477611940298 1.9193507462686572 -0.5551597014925382
C -1.76045223880597 -2.1592492537313435 -0.1734597014925381
C -0.5287522388059701 -1.936549253731343 0.464840298507462
C -1.8068522388059702 -2.121249253731343 -1.5681597014925381
C 0.6114477611940299 -1.614449253731343 -0.2582597014925381
H -0.4544522388059702 -1.954049253731343 1.5506402985074619
C -0.6479522388059701 -1.8270492537313432 -2.2998597014925384
H -2.74345223880597 -2.290549253731343 -2.092259701492538
C 0.5698477611940298 -1.5506492537313434 -1.6506597014925382
H 1.5072477611940298 -1.351949253731343 0.2991402985074618
H -0.7173522388059701 -1.7640492537313435 -3.3840597014925375
C 1.7791477611940298 -1.082849253731343 -2.4255597014925376
H 1.4739477611940297 -0.9102492537313429 -3.464259701492538
H 2.1252477611940295 -0.1337492537313434 -2.0010597014925384
C 1.3965477611940298 2.0964507462686566 1.997440298507462
H 1.51704776119403 1.8448507462686567 3.057640298507462
H 2.1256477611940294 1.5207507462686571 1.4165402985074618
C 3.94864776119403 -1.4275492537313434 -3.522959701492538
H 4.81734776119403 -2.087049253731343 -3.615159701492538
H 3.4305477611940303 -1.3641492537313429 -4.484459701492538
H 4.26984776119403 -0.441449253731343 -3.176459701492538
C 2.60904776119403 -3.4296492537313434 -2.8992597014925376
H 1.9825477611940296 -3.869549253731343 -2.119359701492538
H 2.06294776119403 -3.373349253731343 -3.845759701492538
H 3.5215477611940305 -4.019849253731343 -3.0234597014925377
C 3.7281477611940304 -2.060049253731343 -1.156659701492538
H 3.9048477611940298 -1.032549253731343 -0.8295597014925382
H 3.12924776119403 -2.623249253731343 -0.4404597014925382
H 4.68244776119403 -2.5769492537313434 -1.3005597014925383
C 3.1110477611940297 3.755250746268656 2.588740298507462
H 3.40124776119403 4.809350746268656 2.534540298507462
H 2.9823477611940303 3.461750746268656 3.634840298507462
H 3.86514776119403 3.1392507462686563 2.091540298507462
C 1.99744776119403 3.9574507462686572 0.40494029850746194
H 2.67914776119403 3.230350746268657 -0.04295970149253803
H 1.03214776119403 3.981150746268657 -0.10175970149253821
H 2.4399477611940297 4.958250746268657 0.368240298507462
C 0.7418477611940297 4.4992507462686575 2.475440298507462
H -0.18475223880597014 4.424250746268656 1.901240298507462
H 0.57844776119403 4.189650746268656 3.511940298507462
H 1.1210477611940297 5.524350746268658 2.4432402985074617
N 3.00114776119403 -2.025349253731343 -2.490159701492538
N 1.7831477611940298 3.586450746268657 1.862540298507462
C -3.55075223880597 -3.8435492537313434 0.6444402985074619
H -2.62515223880597 -2.2736492537313433 1.7424402985074618
H -4.67195223880597 -1.3478492537313436 1.5102402985074619
H -4.83415223880597 -1.6757492537313432 -0.1945597014925382
H -3.7169522388059697 0.17335074626865676 -0.900559701492538
H -3.9132522388059705 -4.043149253731343 -0.34225970149253815
H -4.35435223880597 -3.9354492537313432 1.3449402985074619
H -2.78115223880597 -4.545049253731343 0.8904402985074619
H -5.24235223880597 1.138950746268657 1.5249402985074618
H -5.92805223880597 0.6501507462686567 -0.006059701492538094
H -4.89895223880597 2.059650746268657 0.08004029850746197
O -5.1220142790081145 9.584533179755473 4.742192904271716
H -4.829682933756896 10.005065787897601 5.564787620382144
H -4.3108828430119885 9.507228144366827 4.217739217715484
O 1.0551745684848812 0.06166002068288717 6.629613374741754
H 0.2563066867227599 -0.31336467882811225 7.02978076364993
H 1.4946099226256457 -0.7013452331408958 6.225037675436315
O -1.0049395721973193 0.8001521824702307 12.153176586644953
H -1.67867788897968 1.191064690671182 11.576781367779189
H -1.5172468469560516 0.3765972142177231 12.85823288893428
O 10.227741935329334 2.9399439416337145 -10.5397170047369
H 10.03523253543422 3.5119053393613044 -9.781582684605219
H 10.790638403875871 3.4865610750467924 -11.108328664358039
O 8.470621226134739 -0.3920753159987664 8.951422784219556
H 9.097452579037425 -0.3010159054696623 9.684742629629648
H 8.937884765425675 -0.9505200670889786 8.312074530816846
O 1.592189920792088 0.8581658034398205 -4.473086212832887
H 1.5355961871916861 1.087051353111499 -5.412967009194139
H 0.7784442036687181 1.222909014809845 -4.093952671817516
O -3.7906344670845393 3.893469471791779 4.802245481897675
H -3.058168783843695 4.460764575963332 5.086213164139
H -3.69702472957022 3.855205999782692 3.8385364656213357
O -4.61286672684898 0.2648123401224625 -13.880457131720815
H -4.554118343416393 -0.6231895169271753 -13.49709217998363
H -3.9881084392943302 0.24193281386189447 -14.620805396870315
O 8.498284365504949 7.256533599702724 9.574822792255038
H 9.12619780275997 7.958830272991093 9.347949578977936
H 7.776070352743787 7.723523295512332 10.02124130450455
O 4.946064712309541 5.723207020633122 4.793392355598135
H 4.35556172632216 5.433000544868917 5.504766927722067
H 5.5471271812450675 6.346813539461063 5.2279044525671665
C -6.682627281168593 -2.336062231048937 10.383825530675455
O -6.964849758682676 -2.7936959064402394 9.314367654163405
O -6.400404803654511 -1.8784285556576348 11.453283407187504
C -0.9036235487140972 8.855765919239209 -0.9653857659612969
O -0.8751824736969134 8.799052966073981 -2.185119443775903
O -0.9803112222476023 7.881246485826297 -0.20837695575589688
O -0.8601183807022845 9.896468785164826 -0.299282748695595


