%nprocshared=1
%mem=1GB
#p opt=(calcfc,cartesian,maxcycles=5000) iop(1/152=5000) pm6

Title

0 1
C -5.0710522388059704 1.0783507462686561 0.47044029850746183
C -3.8153522388059704 0.1782507462686569 0.19534029850746193
C -4.11845223880597 -1.3219492537313435 0.5608402985074619
C -2.96945223880597 -2.3874492537313436 0.7034402985074619
C -2.52015223880597 0.7359507462686565 0.7384402985074618
C -2.20305223880597 0.7852507462686571 2.097440298507462
C -1.5755522388059702 1.205650746268656 -0.18965970149253808
C -0.9533522388059701 1.2695507462686564 2.508640298507462
H -2.91125223880597 0.4298507462686567 2.840840298507462
C -0.32655223880597006 1.6562507462686575 0.21554029850746192
H -1.7850522388059702 1.178550746268657 -1.2573597014925382
C 0.004447761194029898 1.6956507462686563 1.569740298507462
H -0.7158522388059702 1.2676507462686573 3.5705402985074617
H 0.3943477611940298 1.9193507462686572 -0.5551597014925382
C -1.76045223880597 -2.1592492537313435 -0.1734597014925381
C -0.5287522388059701 -1.936549253731343 0.464840298507462
C -1.8068522388059702 -2.121249253731343 -1.5681597014925381
C 0.6114477611940299 -1.614449253731343 -0.2582597014925381
H -0.4544522388059702 -1.954049253731343 1.5506402985074619
C -0.6479522388059701 -1.8270492537313432 -2.2998597014925384
H -2.74345223880597 -2.290549253731343 -2.092259701492538
C 0.5698477611940298 -1.5506492537313434 -1.6506597014925382
H 1.5072477611940298 -1.351949253731343 0.2991402985074618
H -0.7173522388059701 -1.7640492537313435 -3.3840597014925375
C 1.7791477611940298 -1.082849253731343 -2.4255597014925376
H 1.4739477611940297 -0.9102492537313429 -3.464259701492538
H 2.1252477611940295 -0.1337492537313434 -2.0010597014925384
C 1.3965477611940298 2.0964507462686566 1.997440298507462
H 1.51704776119403 1.8448507462686567 3.057640298507462
H 2.1256477611940294 1.5207507462686571 1.4165402985074618
C 3.94864776119403 -1.4275492537313434 -3.522959701492538
H 4.81734776119403 -2.087049253731343 -3.615159701492538
H 3.4305477611940303 -1.3641492537313429 -4.484459701492538
H 4.26984776119403 -0.441449253731343 -3.176459701492538
C 2.60904776119403 -3.4296492537313434 -2.8992597014925376
H 1.9825477611940296 -3.869549253731343 -2.119359701492538
H 2.06294776119403 -3.373349253731343 -3.845759701492538
H 3.5215477611940305 -4.019849253731343 -3.0234597014925377
C 3.7281477611940304 -2.060049253731343 -1.156659701492538
H 3.9048477611940298 -1.032549253731343 -0.8295597014925382
H 3.12924776119403 -2.623249253731343 -0.4404597014925382
H 4.68244776119403 -2.5769492537313434 -1.3005597014925383
C 3.1110477611940297 3.755250746268656 2.588740298507462
H 3.40124776119403 4.809350746268656 2.534540298507462
H 2.9823477611940303 3.461750746268656 3.634840298507462
H 3.86514776119403 3.1392507462686563 2.091540298507462
C 1.99744776119403 3.9574507462686572 0.40494029850746194
H 2.67914776119403 3.230350746268657 -0.04295970149253803
H 1.03214776119403 3.981150746268657 -0.10175970149253821
H 2.4399477611940297 4.958250746268657 0.368240298507462
C 0.7418477611940297 4.4992507462686575 2.475440298507462
H -0.18475223880597014 4.424250746268656 1.901240298507462
H 0.57844776119403 4.189650746268656 3.511940298507462
H 1.1210477611940297 5.524350746268658 2.4432402985074617
N 3.00114776119403 -2.025349253731343 -2.490159701492538
N 1.7831477611940298 3.586450746268657 1.862540298507462
C -3.55075223880597 -3.8435492537313434 0.6444402985074619
H -2.62515223880597 -2.2736492537313433 1.7424402985074618
H -4.67195223880597 -1.3478492537313436 1.5102402985074619
H -4.83415223880597 -1.6757492537313432 -0.1945597014925382
H -3.7169522388059697 0.17335074626865676 -0.900559701492538
H -3.9132522388059705 -4.043149253731343 -0.34225970149253815
H -4.35435223880597 -3.9354492537313432 1.3449402985074619
H -2.78115223880597 -4.545049253731343 0.8904402985074619
H -5.24235223880597 1.138950746268657 1.5249402985074618
H -5.92805223880597 0.6501507462686567 -0.006059701492538094
H -4.89895223880597 2.059650746268657 0.08004029850746197
O 0.3443610516042651 0.17639716320580168 -10.09323577094798
H -0.11564970931423706 -0.5276255576001935 -10.574597864727814
H -0.2278070471151335 0.3512363989042401 -9.33099115616332
O -8.358289715051185 -1.494843948191909 10.589312842001272
H -8.570618363899062 -1.2700337030100175 11.507650609622583
H -9.05326976710839 -2.1202789369198554 10.334762755736428
O -4.61048162346208 -8.624151211360648 -5.737796730307504
H -4.733898229693588 -7.947861807860748 -6.420708394375447
H -4.5761556853247916 -9.45521940134093 -6.234897663593585
O -2.070753322028625 -1.088786997147194 -6.2846679334573485
H -1.75835130255449 -0.7430773695323978 -7.134289724905122
H -2.976554533188233 -0.751958590035885 -6.21372616631947
O 3.129041598308804 -3.3388093005360444 4.261078187960466
H 3.862128468872383 -3.246126261079954 3.634212292170561
H 2.9105167064354927 -4.282262497679319 4.227838441693524
O -10.990623252933869 -2.3643892887312794 14.82288775438556
H -10.291296669639355 -3.0208584006315795 14.960575778260022
H -10.6427413251113 -1.7958233843976985 14.119557873729413
O -6.641523840509531 -2.536897762404483 -6.52570118576866
H -5.796834705362808 -3.0088482657080955 -6.57795388231677
H -6.387730666436897 -1.6017293837867481 -6.52902875659651
O -1.4637281039721608 7.228078437673867 -1.845456100539286
H -1.411289593020132 6.263834427814329 -1.925774522580153
H -1.3701119299299196 7.544279623933279 -2.7566173190214123
O 3.880045949054626 4.556062657600009 6.241041098325091
H 4.068760357286708 4.252751150032708 5.340287881065853
H 4.584924839599434 5.19490720343751 6.425392231269796
O -2.822437102187793 3.558524032923263 8.298720737423986
H -2.9420987388941584 3.6239687711090287 7.339363955072107
H -3.638391370539768 3.137311758772241 8.608173151153007
C 4.581003346936808 -1.7856062155396482 -6.52205653220464
O 5.622882411348293 -1.321993889172999 -6.158229810698435
O 3.539124282525324 -2.249218541906297 -6.885883253710846
C 1.849106551059336 0.27002355968157343 5.939906472957942
O 1.7629932922733194 -0.7967848411807599 6.5283619437548435
O 1.4482265537817838 0.48387432463393726 4.790039288361374
O 2.350464691800407 1.3008669069451342 6.403210252907033


