%nprocshared=1
%mem=1GB
#p opt=(calcfc,cartesian,maxcycles=5000) iop(1/152=5000) pm6

Title

0 1
C -5.0710522388059704 1.0783507462686561 0.47044029850746183
C -3.8153522388059704 0.1782507462686569 0.19534029850746193
C -4.11845223880597 -1.3219492537313435 0.5608402985074619
C -2.96945223880597 -2.3874492537313436 0.7034402985074619
C -2.52015223880597 0.7359507462686565 0.7384402985074618
C -2.20305223880597 0.7852507462686571 2.097440298507462
C -1.5755522388059702 1.205650746268656 -0.18965970149253808
C -0.9533522388059701 1.2695507462686564 2.508640298507462
H -2.91125223880597 0.4298507462686567 2.840840298507462
C -0.32655223880597006 1.6562507462686575 0.21554029850746192
H -1.7850522388059702 1.178550746268657 -1.2573597014925382
C 0.004447761194029898 1.6956507462686563 1.569740298507462
H -0.7158522388059702 1.2676507462686573 3.5705402985074617
H 0.3943477611940298 1.9193507462686572 -0.5551597014925382
C -1.76045223880597 -2.1592492537313435 -0.1734597014925381
C -0.5287522388059701 -1.936549253731343 0.464840298507462
C -1.8068522388059702 -2.121249253731343 -1.5681597014925381
C 0.6114477611940299 -1.614449253731343 -0.2582597014925381
H -0.4544522388059702 -1.954049253731343 1.5506402985074619
C -0.6479522388059701 -1.8270492537313432 -2.2998597014925384
H -2.74345223880597 -2.290549253731343 -2.092259701492538
C 0.5698477611940298 -1.5506492537313434 -1.6506597014925382
H 1.5072477611940298 -1.351949253731343 0.2991402985074618
H -0.7173522388059701 -1.7640492537313435 -3.3840597014925375
C 1.7791477611940298 -1.082849253731343 -2.4255597014925376
H 1.4739477611940297 -0.9102492537313429 -3.464259701492538
H 2.1252477611940295 -0.1337492537313434 -2.0010597014925384
C 1.3965477611940298 2.0964507462686566 1.997440298507462
H 1.51704776119403 1.8448507462686567 3.057640298507462
H 2.1256477611940294 1.5207507462686571 1.4165402985074618
C 3.94864776119403 -1.4275492537313434 -3.522959701492538
H 4.81734776119403 -2.087049253731343 -3.615159701492538
H 3.4305477611940303 -1.3641492537313429 -4.484459701492538
H 4.26984776119403 -0.441449253731343 -3.176459701492538
C 2.60904776119403 -3.4296492537313434 -2.8992597014925376
H 1.9825477611940296 -3.869549253731343 -2.119359701492538
H 2.06294776119403 -3.373349253731343 -3.845759701492538
H 3.5215477611940305 -4.019849253731343 -3.0234597014925377
C 3.7281477611940304 -2.060049253731343 -1.156659701492538
H 3.9048477611940298 -1.032549253731343 -0.8295597014925382
H 3.12924776119403 -2.623249253731343 -0.4404597014925382
H 4.68244776119403 -2.5769492537313434 -1.3005597014925383
C 3.1110477611940297 3.755250746268656 2.588740298507462
H 3.40124776119403 4.809350746268656 2.534540298507462
H 2.9823477611940303 3.461750746268656 3.634840298507462
H 3.86514776119403 3.1392507462686563 2.091540298507462
C 1.99744776119403 3.9574507462686572 0.40494029850746194
H 2.67914776119403 3.230350746268657 -0.04295970149253803
H 1.03214776119403 3.981150746268657 -0.10175970149253821
H 2.4399477611940297 4.958250746268657 0.368240298507462
C 0.7418477611940297 4.4992507462686575 2.475440298507462
H -0.18475223880597014 4.424250746268656 1.901240298507462
H 0.57844776119403 4.189650746268656 3.511940298507462
H 1.1210477611940297 5.524350746268658 2.4432402985074617
N 3.00114776119403 -2.025349253731343 -2.490159701492538
N 1.7831477611940298 3.586450746268657 1.862540298507462
C -3.55075223880597 -3.8435492537313434 0.6444402985074619
H -2.62515223880597 -2.2736492537313433 1.7424402985074618
H -4.67195223880597 -1.3478492537313436 1.5102402985074619
H -4.83415223880597 -1.6757492537313432 -0.1945597014925382
H -3.7169522388059697 0.17335074626865676 -0.900559701492538
H -3.9132522388059705 -4.043149253731343 -0.34225970149253815
H -4.35435223880597 -3.9354492537313432 1.3449402985074619
H -2.78115223880597 -4.545049253731343 0.8904402985074619
H -5.24235223880597 1.138950746268657 1.5249402985074618
H -5.92805223880597 0.6501507462686567 -0.006059701492538094
H -4.89895223880597 2.059650746268657 0.08004029850746197
O 1.200237544790947 -10.876708775448588 -0.6438307984551128
H 0.26140208287886835 -10.65189428851644 -0.5600824920736116
H 1.293065282179766 -11.153724845689796 -1.5677393720160415
O 6.20144961916915 0.8901447625649004 7.535323723643325
H 5.891704270704684 0.3101135672651294 8.247074374140917
H 6.815402071848922 1.4956725275758544 7.97731971451805
O -8.09638377071424 10.084485424717421 -8.687072049176646
H -8.84794350282882 10.399303578122684 -8.162653460403932
H -7.802932283320874 10.870953578757984 -9.171134040585443
O 2.011233209468621 -5.455944955927592 5.395487169785473
H 2.4928178631068145 -4.618670998849912 5.317924942640647
H 2.5477793753265443 -6.082535072031404 4.887092655058797
O -3.120515593540371 6.596028238467298 6.922745845872421
H -3.4814046139328463 5.706045415977428 7.051808030625066
H -3.8196955352928605 7.181814350806737 7.249799333762751
O 0.36062181596083154 12.182688789565935 0.7988526170536169
H -0.32307447721219684 12.311181960006849 0.1243037005534835
H 1.1138286154550943 12.695600952744543 0.4693642646660865
O 8.606992656446636 -1.6493764229581989 13.68013489304012
H 8.9480052697142 -2.1449315957311477 14.439807733959421
H 9.143478699461626 -1.9625632731011728 12.936455750635522
O -1.9088762855681216 0.16564944535313586 -3.835835342457653
H -1.565119942514849 0.855813012218148 -3.2489169627123884
H -2.4631078946257183 0.6494144079394915 -4.466518090592758
O -7.384225007087582 -6.753832648512294 8.345656269683024
H -6.570493959456486 -6.228981126646457 8.309049999505422
H -7.490372603894756 -7.0844836755019145 7.441021243640605
O 9.652742728187466 4.684130068964719 -10.473135989237184
H 9.600342902372027 4.583822759710129 -11.43550808924041
H 10.30927481489093 5.385445071944105 -10.34631000599708
C 0.3785374002880216 -5.693714679051145 -0.7960432360274848
O -0.3817840264034862 -5.206755995174768 -1.58191906948413
O 1.1388588269795292 -6.180673362927522 -0.01016740257083959
C -6.643997594210952 -2.072138319198833 7.665597961142254
O -7.563185210700369 -2.607775091743686 8.265567020503017
O -5.755608770893799 -2.667210777879669 7.044884233547392
O -6.4599381039037205 -0.852104100645529 7.586307394320775


