%nprocshared=1
%mem=1GB
#p opt=(calcfc,cartesian,maxcycles=5000) iop(1/152=5000) pm6

Title

0 1
C -5.0710522388059704 1.0783507462686561 0.47044029850746183
C -3.8153522388059704 0.1782507462686569 0.19534029850746193
C -4.11845223880597 -1.3219492537313435 0.5608402985074619
C -2.96945223880597 -2.3874492537313436 0.7034402985074619
C -2.52015223880597 0.7359507462686565 0.7384402985074618
C -2.20305223880597 0.7852507462686571 2.097440298507462
C -1.5755522388059702 1.205650746268656 -0.18965970149253808
C -0.9533522388059701 1.2695507462686564 2.508640298507462
H -2.91125223880597 0.4298507462686567 2.840840298507462
C -0.32655223880597006 1.6562507462686575 0.21554029850746192
H -1.7850522388059702 1.178550746268657 -1.2573597014925382
C 0.004447761194029898 1.6956507462686563 1.569740298507462
H -0.7158522388059702 1.2676507462686573 3.5705402985074617
H 0.3943477611940298 1.9193507462686572 -0.5551597014925382
C -1.76045223880597 -2.1592492537313435 -0.1734597014925381
C -0.5287522388059701 -1.936549253731343 0.464840298507462
C -1.8068522388059702 -2.121249253731343 -1.5681597014925381
C 0.6114477611940299 -1.614449253731343 -0.2582597014925381
H -0.4544522388059702 -1.954049253731343 1.5506402985074619
C -0.6479522388059701 -1.8270492537313432 -2.2998597014925384
H -2.74345223880597 -2.290549253731343 -2.092259701492538
C 0.5698477611940298 -1.5506492537313434 -1.6506597014925382
H 1.5072477611940298 -1.351949253731343 0.2991402985074618
H -0.7173522388059701 -1.7640492537313435 -3.3840597014925375
C 1.7791477611940298 -1.082849253731343 -2.4255597014925376
H 1.4739477611940297 -0.9102492537313429 -3.464259701492538
H 2.1252477611940295 -0.1337492537313434 -2.0010597014925384
C 1.3965477611940298 2.0964507462686566 1.997440298507462
H 1.51704776119403 1.8448507462686567 3.057640298507462
H 2.1256477611940294 1.5207507462686571 1.4165402985074618
C 3.94864776119403 -1.4275492537313434 -3.522959701492538
H 4.81734776119403 -2.087049253731343 -3.615159701492538
H 3.4305477611940303 -1.3641492537313429 -4.484459701492538
H 4.26984776119403 -0.441449253731343 -3.176459701492538
C 2.60904776119403 -3.4296492537313434 -2.8992597014925376
H 1.9825477611940296 -3.869549253731343 -2.119359701492538
H 2.06294776119403 -3.373349253731343 -3.845759701492538
H 3.5215477611940305 -4.019849253731343 -3.0234597014925377
C 3.7281477611940304 -2.060049253731343 -1.156659701492538
H 3.9048477611940298 -1.032549253731343 -0.8295597014925382
H 3.12924776119403 -2.623249253731343 -0.4404597014925382
H 4.68244776119403 -2.5769492537313434 -1.3005597014925383
C 3.1110477611940297 3.755250746268656 2.588740298507462
H 3.40124776119403 4.809350746268656 2.534540298507462
H 2.9823477611940303 3.461750746268656 3.634840298507462
H 3.86514776119403 3.1392507462686563 2.091540298507462
C 1.99744776119403 3.9574507462686572 0.40494029850746194
H 2.67914776119403 3.230350746268657 -0.04295970149253803
H 1.03214776119403 3.981150746268657 -0.10175970149253821
H 2.4399477611940297 4.958250746268657 0.368240298507462
C 0.7418477611940297 4.4992507462686575 2.475440298507462
H -0.18475223880597014 4.424250746268656 1.901240298507462
H 0.57844776119403 4.189650746268656 3.511940298507462
H 1.1210477611940297 5.524350746268658 2.4432402985074617
N 3.00114776119403 -2.025349253731343 -2.490159701492538
N 1.7831477611940298 3.586450746268657 1.862540298507462
C -3.55075223880597 -3.8435492537313434 0.6444402985074619
H -2.62515223880597 -2.2736492537313433 1.7424402985074618
H -4.67195223880597 -1.3478492537313436 1.5102402985074619
H -4.83415223880597 -1.6757492537313432 -0.1945597014925382
H -3.7169522388059697 0.17335074626865676 -0.900559701492538
H -3.9132522388059705 -4.043149253731343 -0.34225970149253815
H -4.35435223880597 -3.9354492537313432 1.3449402985074619
H -2.78115223880597 -4.545049253731343 0.8904402985074619
H -5.24235223880597 1.138950746268657 1.5249402985074618
H -5.92805223880597 0.6501507462686567 -0.006059701492538094
H -4.89895223880597 2.059650746268657 0.08004029850746197
O -5.834817478958076 -1.9221812565173215 -7.622265668699558
H -6.058909095395698 -2.850183320859517 -7.788285164298713
H -6.666612159441974 -1.532020700501607 -7.3142814250308295
O -3.20799720209898 2.922956360499636 4.6915852777234095
H -3.159120306058825 3.3272153486663547 3.812294042454968
H -4.128447205537328 3.060328051579283 4.961516294763436
O -4.847385686433081 7.53932328735617 -7.8836072355355356
H -3.988682531916131 7.89378357560702 -8.159205046440784
H -4.822516680628299 7.59130029874674 -6.916321410591747
O -4.871883073205306 -12.574274507439279 -4.60238100095729
H -4.480984091730505 -12.785823398079359 -5.463434082974255
H -4.1727990182094015 -12.79273531226745 -3.967937697655639
O 0.6887797689236455 -11.186819114188838 -1.5292025722182347
H 0.6175742137357676 -11.1553784117732 -0.5633306303739762
H 1.5540009961688717 -11.593582318124547 -1.6869931554233792
O -1.1968872517044773 -0.8178518825366667 -9.290937465402484
H -0.6777106153384971 -1.3008726242495507 -8.630548231520795
H -0.9917451826588612 0.11270385038084818 -9.115026397694878
O -1.5937641643809333 -7.212247659534046 -1.3827623900399484
H -1.3594980736986502 -6.542089931199219 -0.7232357606992178
H -1.3818630550695492 -6.79143941412296 -2.2295092735692874
O -6.219475874373106 3.459226121617009 -12.921272689039391
H -5.915403615431113 2.542414180369879 -12.844050395441082
H -5.671922495591444 3.8284861391869756 -13.630352572486252
O -2.963432538753543 7.1293475146999645 5.56574769691555
H -3.1508777547282616 7.663810487516315 4.779502837729495
H -3.0552080632051823 6.216038691695439 5.255254232839873
O -2.9903587218102157 1.9993278320334418 -4.359525072250469
H -2.8191428438748987 1.3838723547838998 -3.6309188441914593
H -2.5828066476021516 2.8281669873655546 -4.066456981703147
C 3.1938202996588294 -1.8754557224703376 6.036232106013787
O 3.5415483954119433 -0.7702033940497615 5.735698049300062
O 2.846092203905716 -2.9807080508909136 6.336766162727512
C 13.425036932581467 -2.6642841519323874 14.7079081065802
O 14.45715131502792 -3.282620440786436 14.497728102694529
O 12.283030059200719 -3.1235790694728633 14.591718847297695
O 13.362841916134425 -1.4835398427889441 15.069326203463195


