%nprocshared=1
%mem=1GB
#p opt=(calcfc,cartesian,maxcycles=5000) iop(1/152=5000) pm6

Title

0 1
C -5.0710522388059704 1.0783507462686561 0.47044029850746183
C -3.8153522388059704 0.1782507462686569 0.19534029850746193
C -4.11845223880597 -1.3219492537313435 0.5608402985074619
C -2.96945223880597 -2.3874492537313436 0.7034402985074619
C -2.52015223880597 0.7359507462686565 0.7384402985074618
C -2.20305223880597 0.7852507462686571 2.097440298507462
C -1.5755522388059702 1.205650746268656 -0.18965970149253808
C -0.9533522388059701 1.2695507462686564 2.508640298507462
H -2.91125223880597 0.4298507462686567 2.840840298507462
C -0.32655223880597006 1.6562507462686575 0.21554029850746192
H -1.7850522388059702 1.178550746268657 -1.2573597014925382
C 0.004447761194029898 1.6956507462686563 1.569740298507462
H -0.7158522388059702 1.2676507462686573 3.5705402985074617
H 0.3943477611940298 1.9193507462686572 -0.5551597014925382
C -1.76045223880597 -2.1592492537313435 -0.1734597014925381
C -0.5287522388059701 -1.936549253731343 0.464840298507462
C -1.8068522388059702 -2.121249253731343 -1.5681597014925381
C 0.6114477611940299 -1.614449253731343 -0.2582597014925381
H -0.4544522388059702 -1.954049253731343 1.5506402985074619
C -0.6479522388059701 -1.8270492537313432 -2.2998597014925384
H -2.74345223880597 -2.290549253731343 -2.092259701492538
C 0.5698477611940298 -1.5506492537313434 -1.6506597014925382
H 1.5072477611940298 -1.351949253731343 0.2991402985074618
H -0.7173522388059701 -1.7640492537313435 -3.3840597014925375
C 1.7791477611940298 -1.082849253731343 -2.4255597014925376
H 1.4739477611940297 -0.9102492537313429 -3.464259701492538
H 2.1252477611940295 -0.1337492537313434 -2.0010597014925384
C 1.3965477611940298 2.0964507462686566 1.997440298507462
H 1.51704776119403 1.8448507462686567 3.057640298507462
H 2.1256477611940294 1.5207507462686571 1.4165402985074618
C 3.94864776119403 -1.4275492537313434 -3.522959701492538
H 4.81734776119403 -2.087049253731343 -3.615159701492538
H 3.4305477611940303 -1.3641492537313429 -4.484459701492538
H 4.26984776119403 -0.441449253731343 -3.176459701492538
C 2.60904776119403 -3.4296492537313434 -2.8992597014925376
H 1.9825477611940296 -3.869549253731343 -2.119359701492538
H 2.06294776119403 -3.373349253731343 -3.845759701492538
H 3.5215477611940305 -4.019849253731343 -3.0234597014925377
C 3.7281477611940304 -2.060049253731343 -1.156659701492538
H 3.9048477611940298 -1.032549253731343 -0.8295597014925382
H 3.12924776119403 -2.623249253731343 -0.4404597014925382
H 4.68244776119403 -2.5769492537313434 -1.3005597014925383
C 3.1110477611940297 3.755250746268656 2.588740298507462
H 3.40124776119403 4.809350746268656 2.534540298507462
H 2.9823477611940303 3.461750746268656 3.634840298507462
H 3.86514776119403 3.1392507462686563 2.091540298507462
C 1.99744776119403 3.9574507462686572 0.40494029850746194
H 2.67914776119403 3.230350746268657 -0.04295970149253803
H 1.03214776119403 3.981150746268657 -0.10175970149253821
H 2.4399477611940297 4.958250746268657 0.368240298507462
C 0.7418477611940297 4.4992507462686575 2.475440298507462
H -0.18475223880597014 4.424250746268656 1.901240298507462
H 0.57844776119403 4.189650746268656 3.511940298507462
H 1.1210477611940297 5.524350746268658 2.4432402985074617
N 3.00114776119403 -2.025349253731343 -2.490159701492538
N 1.7831477611940298 3.586450746268657 1.862540298507462
C -3.55075223880597 -3.8435492537313434 0.6444402985074619
H -2.62515223880597 -2.2736492537313433 1.7424402985074618
H -4.67195223880597 -1.3478492537313436 1.5102402985074619
H -4.83415223880597 -1.6757492537313432 -0.1945597014925382
H -3.7169522388059697 0.17335074626865676 -0.900559701492538
H -3.9132522388059705 -4.043149253731343 -0.34225970149253815
H -4.35435223880597 -3.9354492537313432 1.3449402985074619
H -2.78115223880597 -4.545049253731343 0.8904402985074619
H -5.24235223880597 1.138950746268657 1.5249402985074618
H -5.92805223880597 0.6501507462686567 -0.006059701492538094
H -4.89895223880597 2.059650746268657 0.08004029850746197
O 3.666984170295246 1.2036885332575122 -6.695163967630347
H 4.114135983823186 1.7144102999089408 -6.003654105352796
H 2.7492414400111422 1.5124079174240377 -6.657713104482488
O 9.932697088354423 1.5016682694475816 -12.752577363838792
H 10.274954759543572 1.3623545174723892 -13.648355641049609
H 9.990492653939718 0.6262513565998248 -12.34115684223252
O -0.8375376685639844 0.31500915426550413 -4.65482460046117
H -0.7783413862252417 0.24541345178075824 -5.619510868246157
H 0.06257139206696061 0.5472061957739212 -4.381237032788925
O 1.5960083910307383 8.625217592288681 -1.905820952687739
H 2.0900125784776318 8.076551275747303 -1.278212402094416
H 0.7591361966814215 8.804743047869701 -1.4515330644237157
O 6.956325316564738 9.737008995129882 -7.883387537327909
H 6.964167967663036 10.670055809690941 -7.621988433348555
H 6.024847618431227 9.480732681847021 -7.808329603503154
O 0.9572367179218122 -0.07285813907731056 6.842815267243872
H 0.3614249833610176 -0.06543510133394304 7.606962263816075
H 0.505743742658213 0.481317074928875 6.1885936918056865
O -2.481227196580427 7.815298158837943 -3.9469517795617075
H -2.512997420454676 8.76041925098075 -3.7355182652793895
H -1.6691553926435632 7.50660733537495 -3.517753334713097
O 5.572385186144459 0.7355365753182507 13.768606373555766
H 6.26264964796561 0.18986242726284652 14.174490659764
H 4.753307917351164 0.2512120209208172 13.95164762042063
O -2.6038554163009575 -7.7952488283642545 -2.5541325107879325
H -2.876226469595399 -7.023704933070319 -2.0349972838364776
H -2.407634446196173 -7.430503057375843 -3.430157509139695
O -3.3489782918828293 1.199962477271676 5.418769466184067
H -3.3367984978619676 1.3205438908550686 6.3801638349089105
H -2.585978413888031 0.6285164999315985 5.2448653964738785
C 11.912762806545091 -0.2105526681652356 -12.99796994348459
O 11.54118515823912 -0.3084084886789793 -14.131624453011625
O 12.284340454851062 -0.11269684765149193 -11.864315433957554
C 7.344985205537471 4.2483744302023725 7.84154086720986
O 6.621961428555965 4.359697956642785 8.81960997978845
O 8.428777454874915 4.823096936793498 7.68752831968955
O 7.104764659263267 3.5437572977478773 6.854394895127044


